 vasp.5.3.5 31Mar14 (build Feb  5 2015 19:39:53) complex

 executed on              HPCUofA date 2017.11.14  14:07:08

 INCAR:
 POTCAR:   PAW Si 02Apr1999
 POTCAR:   PAW Si 02Apr1999
   VRHFIN =Si: s2p2

   TITEL  = PAW Si 02Apr1999
   POMASS =   28.085; ZVAL   =    4.000    mass and valenz
   ENMAX  =  245.704; ENMIN  =  184.278 eV
   QCUT   =   -4.250; QGAM   =    8.499    optimization parameters

   Description
     l     E      TYP  RCUT    TYP  RCUT
     0   .000     23  1.900
     0   .000     23  1.900
     1   .000     23  1.900
     1   .000     23  1.900
     2   .000      7  1.900

 PAW Si 02Apr1999                       :

 POSCAR: fcc Si:
  positions in direct lattice
  velocities in cartesian coordinates
 exchange correlation table for  LEXCH =        2
   RHO(1)=    0.500       N(1)  =     2000
   RHO(2)=  100.500       N(2)  =     4000

 ion  position               nearest neighbor table
   1  0.000  0.000  0.000-

  LATTYP: Found a face centered cubic cell.
 ALAT       =     3.5607046892

  Lattice vectors:

 A1 = (   1.7803523446,   1.7803523446,   0.0000000000)
 A2 = (   0.0000000000,   1.7803523446,   1.7803523446)
 A3 = (   1.7803523446,   0.0000000000,   1.7803523446)

Analysis of symmetry for initial positions (statically):
 Subroutine PRICEL returns:
 Original cell was already a primitive cell.

 Routine SETGRP: Setting up the symmetry group for a
 face centered cubic supercell.

 Subroutine GETGRP returns: Found 48 space group operations
 (whereof 48 operations were pure point group operations)
 out of a pool of 48 trial point group operations.

The static configuration has the point symmetry O_h .

Analysis of symmetry for dynamics (positions and initial velocities):
 Subroutine PRICEL returns:
 Original cell was already a primitive cell.

 Routine SETGRP: Setting up the symmetry group for a
 face centered cubic supercell.

 Subroutine GETGRP returns: Found 48 space group operations
 (whereof 48 operations were pure point group operations)
 out of a pool of 48 trial point group operations.

The dynamic configuration has the point symmetry O_h .

 KPOINTS: k-points

Automatic generation of k-mesh.
Space group operators:
 irot       det(A)        alpha          n_x          n_y          n_z        tau_x        tau_y        tau_z
    1     1.000000     0.000000     1.000000     0.000000     0.000000     0.000000     0.000000     0.000000
    2    -1.000000     0.000000     1.000000     0.000000     0.000000     0.000000     0.000000     0.000000
    3     1.000000   120.000000    -0.577350    -0.577350    -0.577350     0.000000     0.000000     0.000000
    4    -1.000000   120.000000    -0.577350    -0.577350    -0.577350     0.000000     0.000000     0.000000
    5     1.000000   120.000000     0.577350     0.577350     0.577350     0.000000     0.000000     0.000000
    6    -1.000000   120.000000     0.577350     0.577350     0.577350     0.000000     0.000000     0.000000
    7     1.000000    90.000000     0.000000    -1.000000     0.000000     0.000000     0.000000     0.000000
    8    -1.000000    90.000000     0.000000    -1.000000     0.000000     0.000000     0.000000     0.000000
    9     1.000000   180.000000     0.707107     0.707107     0.000000     0.000000     0.000000     0.000000
   10    -1.000000   180.000000     0.707107     0.707107     0.000000     0.000000     0.000000     0.000000
   11     1.000000    90.000000     1.000000     0.000000     0.000000     0.000000     0.000000     0.000000
   12    -1.000000    90.000000     1.000000     0.000000     0.000000     0.000000     0.000000     0.000000
   13     1.000000   180.000000     0.000000     1.000000     0.000000     0.000000     0.000000     0.000000
   14    -1.000000   180.000000     0.000000     1.000000     0.000000     0.000000     0.000000     0.000000
   15     1.000000   120.000000     0.577350     0.577350    -0.577350     0.000000     0.000000     0.000000
   16    -1.000000   120.000000     0.577350     0.577350    -0.577350     0.000000     0.000000     0.000000
   17     1.000000   120.000000     0.577350    -0.577350    -0.577350     0.000000     0.000000     0.000000
   18    -1.000000   120.000000     0.577350    -0.577350    -0.577350     0.000000     0.000000     0.000000
   19     1.000000    90.000000     0.000000     1.000000     0.000000     0.000000     0.000000     0.000000
   20    -1.000000    90.000000     0.000000     1.000000     0.000000     0.000000     0.000000     0.000000
   21     1.000000    90.000000     0.000000     0.000000    -1.000000     0.000000     0.000000     0.000000
   22    -1.000000    90.000000     0.000000     0.000000    -1.000000     0.000000     0.000000     0.000000
   23     1.000000   180.000000     0.000000     0.707107     0.707107     0.000000     0.000000     0.000000
   24    -1.000000   180.000000     0.000000     0.707107     0.707107     0.000000     0.000000     0.000000
   25     1.000000   120.000000    -0.577350     0.577350     0.577350     0.000000     0.000000     0.000000
   26    -1.000000   120.000000    -0.577350     0.577350     0.577350     0.000000     0.000000     0.000000
   27     1.000000   120.000000    -0.577350     0.577350    -0.577350     0.000000     0.000000     0.000000
   28    -1.000000   120.000000    -0.577350     0.577350    -0.577350     0.000000     0.000000     0.000000
   29     1.000000   180.000000     0.000000     0.000000     1.000000     0.000000     0.000000     0.000000
   30    -1.000000   180.000000     0.000000     0.000000     1.000000     0.000000     0.000000     0.000000
   31     1.000000    90.000000    -1.000000     0.000000     0.000000     0.000000     0.000000     0.000000
   32    -1.000000    90.000000    -1.000000     0.000000     0.000000     0.000000     0.000000     0.000000
   33     1.000000   180.000000     0.707107     0.000000     0.707107     0.000000     0.000000     0.000000
   34    -1.000000   180.000000     0.707107     0.000000     0.707107     0.000000     0.000000     0.000000
   35     1.000000    90.000000     0.000000     0.000000     1.000000     0.000000     0.000000     0.000000
   36    -1.000000    90.000000     0.000000     0.000000     1.000000     0.000000     0.000000     0.000000
   37     1.000000   120.000000    -0.577350    -0.577350     0.577350     0.000000     0.000000     0.000000
   38    -1.000000   120.000000    -0.577350    -0.577350     0.577350     0.000000     0.000000     0.000000
   39     1.000000   180.000000     1.000000     0.000000     0.000000     0.000000     0.000000     0.000000
   40    -1.000000   180.000000     1.000000     0.000000     0.000000     0.000000     0.000000     0.000000
   41     1.000000   120.000000     0.577350    -0.577350     0.577350     0.000000     0.000000     0.000000
   42    -1.000000   120.000000     0.577350    -0.577350     0.577350     0.000000     0.000000     0.000000
   43     1.000000   180.000000     0.707107    -0.707107     0.000000     0.000000     0.000000     0.000000
   44    -1.000000   180.000000     0.707107    -0.707107     0.000000     0.000000     0.000000     0.000000
   45     1.000000   180.000000     0.707107     0.000000    -0.707107     0.000000     0.000000     0.000000
   46    -1.000000   180.000000     0.707107     0.000000    -0.707107     0.000000     0.000000     0.000000
   47     1.000000   180.000000     0.000000    -0.707107     0.707107     0.000000     0.000000     0.000000
   48    -1.000000   180.000000     0.000000    -0.707107     0.707107     0.000000     0.000000     0.000000

 Subroutine IBZKPT returns following result:

 Found     56 irreducible k-points:

 Following reciprocal coordinates:
            Coordinates               Weight
  0.000000  0.000000  0.000000      1.000000
  0.090909  0.000000  0.000000      8.000000
  0.181818  0.000000  0.000000      8.000000
  0.272727  0.000000  0.000000      8.000000
  0.363636  0.000000  0.000000      8.000000
  0.454545  0.000000  0.000000      8.000000
  0.090909  0.090909  0.000000      6.000000
  0.181818  0.090909  0.000000     24.000000
  0.272727  0.090909  0.000000     24.000000
  0.363636  0.090909  0.000000     24.000000
  0.454545  0.090909  0.000000     24.000000
 -0.454545  0.090909  0.000000     24.000000
 -0.363636  0.090909  0.000000     24.000000
 -0.272727  0.090909  0.000000     24.000000
 -0.181818  0.090909  0.000000     24.000000
 -0.090909  0.090909  0.000000     12.000000
  0.181818  0.181818  0.000000      6.000000
  0.272727  0.181818  0.000000     24.000000
  0.363636  0.181818  0.000000     24.000000
  0.454545  0.181818  0.000000     24.000000
 -0.454545  0.181818  0.000000     24.000000
 -0.363636  0.181818  0.000000     24.000000
 -0.272727  0.181818  0.000000     24.000000
 -0.181818  0.181818  0.000000     12.000000
  0.272727  0.272727  0.000000      6.000000
  0.363636  0.272727  0.000000     24.000000
  0.454545  0.272727  0.000000     24.000000
 -0.454545  0.272727  0.000000     24.000000
 -0.363636  0.272727  0.000000     24.000000
 -0.272727  0.272727  0.000000     12.000000
  0.363636  0.363636  0.000000      6.000000
  0.454545  0.363636  0.000000     24.000000
 -0.454545  0.363636  0.000000     24.000000
 -0.363636  0.363636  0.000000     12.000000
  0.454545  0.454545  0.000000      6.000000
 -0.454545  0.454545  0.000000     12.000000
  0.272727  0.181818  0.090909     24.000000
  0.363636  0.181818  0.090909     48.000000
  0.454545  0.181818  0.090909     48.000000
 -0.454545  0.181818  0.090909     48.000000
  0.363636  0.272727  0.090909     24.000000
  0.454545  0.272727  0.090909     48.000000
 -0.454545  0.272727  0.090909     48.000000
 -0.363636  0.272727  0.090909     48.000000
 -0.272727  0.272727  0.090909     48.000000
 -0.181818  0.272727  0.090909     24.000000
  0.454545  0.363636  0.090909     24.000000
 -0.454545  0.363636  0.090909     48.000000
 -0.363636  0.363636  0.090909     48.000000
 -0.272727  0.363636  0.090909     24.000000
 -0.454545  0.454545  0.090909     24.000000
 -0.363636  0.454545  0.090909     24.000000
 -0.454545  0.363636  0.181818     24.000000
 -0.363636  0.363636  0.181818     48.000000
 -0.363636  0.454545  0.181818     24.000000
 -0.272727  0.454545  0.181818     24.000000

 Following cartesian coordinates:
            Coordinates               Weight
  0.000000  0.000000  0.000000      1.000000
  0.102125  0.102125 -0.102125      8.000000
  0.204250  0.204250 -0.204250      8.000000
  0.306374  0.306374 -0.306374      8.000000
  0.408499  0.408499 -0.408499      8.000000
  0.510624  0.510624 -0.510624      8.000000
  0.000000  0.204250  0.000000      6.000000
  0.102125  0.306374 -0.102125     24.000000
  0.204250  0.408499 -0.204250     24.000000
  0.306374  0.510624 -0.306374     24.000000
  0.408499  0.612749 -0.408499     24.000000
 -0.612749 -0.408499  0.612749     24.000000
 -0.510624 -0.306374  0.510624     24.000000
 -0.408499 -0.204250  0.408499     24.000000
 -0.306374 -0.102125  0.306374     24.000000
 -0.204250  0.000000  0.204250     12.000000
  0.000000  0.408499  0.000000      6.000000
  0.102125  0.510624 -0.102125     24.000000
  0.204250  0.612749 -0.204250     24.000000
[...]

 k-points in units of 2pi/SCALE and weight: k-points
   0.00000000  0.00000000  0.00000000       0.001
   0.10212483  0.10212483 -0.10212483       0.006
   0.20424966  0.20424966 -0.20424966       0.006
   0.30637449  0.30637449 -0.30637449       0.006
   0.40849932  0.40849932 -0.40849932       0.006
   0.51062415  0.51062415 -0.51062415       0.006
   0.00000000  0.20424966  0.00000000       0.005
   0.10212483  0.30637449 -0.10212483       0.018
   0.20424966  0.40849932 -0.20424966       0.018
   0.30637449  0.51062415 -0.30637449       0.018
   0.40849932  0.61274898 -0.40849932       0.018
  -0.61274898 -0.40849932  0.61274898       0.018
  -0.51062415 -0.30637449  0.51062415       0.018
  -0.40849932 -0.20424966  0.40849932       0.018
  -0.30637449 -0.10212483  0.30637449       0.018
  -0.20424966  0.00000000  0.20424966       0.009
   0.00000000  0.40849932  0.00000000       0.005
   0.10212483  0.51062415 -0.10212483       0.018
   0.20424966  0.61274898 -0.20424966       0.018
   0.30637449  0.71487382 -0.30637449       0.018
  -0.71487382 -0.30637449  0.71487382       0.018
  -0.61274898 -0.20424966  0.61274898       0.018
  -0.51062415 -0.10212483  0.51062415       0.018
  -0.40849932  0.00000000  0.40849932       0.009
   0.00000000  0.61274898  0.00000000       0.005
   0.10212483  0.71487382 -0.10212483       0.018
   0.20424966  0.81699865 -0.20424966       0.018
  -0.81699865 -0.20424966  0.81699865       0.018
  -0.71487382 -0.10212483  0.71487382       0.018
  -0.61274898  0.00000000  0.61274898       0.009
   0.00000000  0.81699865  0.00000000       0.005
   0.10212483  0.91912348 -0.10212483       0.018
  -0.91912348 -0.10212483  0.91912348       0.018
  -0.81699865  0.00000000  0.81699865       0.009
   0.00000000  1.02124831  0.00000000       0.005
  -1.02124831  0.00000000  1.02124831       0.009
   0.20424966  0.40849932  0.00000000       0.018
   0.30637449  0.51062415 -0.10212483       0.036
   0.40849932  0.61274898 -0.20424966       0.036
  -0.61274898 -0.40849932  0.81699865       0.036
   0.20424966  0.61274898  0.00000000       0.018
   0.30637449  0.71487382 -0.10212483       0.036
  -0.71487382 -0.30637449  0.91912348       0.036
  -0.61274898 -0.20424966  0.81699865       0.036
  -0.51062415 -0.10212483  0.71487382       0.036
  -0.40849932 -0.00000000  0.61274898       0.018
   0.20424966  0.81699865 -0.00000000       0.018
  -0.81699865 -0.20424966  1.02124831       0.036
  -0.71487382 -0.10212483  0.91912348       0.036
  -0.61274898  0.00000000  0.81699865       0.018
  -0.91912348 -0.10212483  1.12337314       0.018
  -0.81699865  0.00000000  1.02124831       0.018
  -0.71487382 -0.30637449  1.12337314       0.018
  -0.61274898 -0.20424966  1.02124831       0.036
  -0.71487382 -0.10212483  1.12337314       0.018
  -0.61274898  0.00000000  1.02124831       0.018

 k-points in reciprocal lattice and weights: k-points
   0.00000000  0.00000000  0.00000000       0.001
   0.09090909  0.00000000  0.00000000       0.006
   0.18181818  0.00000000  0.00000000       0.006
   0.27272727  0.00000000  0.00000000       0.006
   0.36363636  0.00000000  0.00000000       0.006
   0.45454545  0.00000000  0.00000000       0.006
   0.09090909  0.09090909  0.00000000       0.005
   0.18181818  0.09090909  0.00000000       0.018
   0.27272727  0.09090909  0.00000000       0.018
   0.36363636  0.09090909  0.00000000       0.018
   0.45454545  0.09090909  0.00000000       0.018
  -0.45454545  0.09090909  0.00000000       0.018
  -0.36363636  0.09090909  0.00000000       0.018
  -0.27272727  0.09090909  0.00000000       0.018
  -0.18181818  0.09090909  0.00000000       0.018
  -0.09090909  0.09090909  0.00000000       0.009
   0.18181818  0.18181818  0.00000000       0.005
   0.27272727  0.18181818  0.00000000       0.018
   0.36363636  0.18181818  0.00000000       0.018
   0.45454545  0.18181818  0.00000000       0.018
  -0.45454545  0.18181818  0.00000000       0.018
  -0.36363636  0.18181818  0.00000000       0.018
  -0.27272727  0.18181818  0.00000000       0.018
  -0.18181818  0.18181818  0.00000000       0.009
   0.27272727  0.27272727  0.00000000       0.005
   0.36363636  0.27272727  0.00000000       0.018
   0.45454545  0.27272727  0.00000000       0.018
  -0.45454545  0.27272727  0.00000000       0.018
  -0.36363636  0.27272727  0.00000000       0.018
  -0.27272727  0.27272727  0.00000000       0.009
   0.36363636  0.36363636  0.00000000       0.005
   0.45454545  0.36363636  0.00000000       0.018
  -0.45454545  0.36363636  0.00000000       0.018
  -0.36363636  0.36363636  0.00000000       0.009
   0.45454545  0.45454545  0.00000000       0.005
  -0.45454545  0.45454545  0.00000000       0.009
   0.27272727  0.18181818  0.09090909       0.018
   0.36363636  0.18181818  0.09090909       0.036
   0.45454545  0.18181818  0.09090909       0.036
  -0.45454545  0.18181818  0.09090909       0.036
   0.36363636  0.27272727  0.09090909       0.018
   0.45454545  0.27272727  0.09090909       0.036
  -0.45454545  0.27272727  0.09090909       0.036
  -0.36363636  0.27272727  0.09090909       0.036
  -0.27272727  0.27272727  0.09090909       0.036
  -0.18181818  0.27272727  0.09090909       0.018
   0.45454545  0.36363636  0.09090909       0.018
  -0.45454545  0.36363636  0.09090909       0.036
  -0.36363636  0.36363636  0.09090909       0.036
  -0.27272727  0.36363636  0.09090909       0.018
  -0.45454545  0.45454545  0.09090909       0.018
  -0.36363636  0.45454545  0.09090909       0.018
  -0.45454545  0.36363636  0.18181818       0.018
  -0.36363636  0.36363636  0.18181818       0.036
  -0.36363636  0.45454545  0.18181818       0.018
  -0.27272727  0.45454545  0.18181818       0.018

 position of ions in fractional coordinates (direct lattice)
   0.00000000  0.00000000  0.00000000

 position of ions in cartesian coordinates  (Angst):
   0.00000000  0.00000000  0.00000000

 k-point  1 :   0.0000 0.0000 0.0000  plane waves:     113
 k-point  2 :   0.0909 0.0000 0.0000  plane waves:      98
 k-point  3 :   0.1818 0.0000 0.0000  plane waves:      95
 k-point  4 :   0.2727 0.0000 0.0000  plane waves:      98
 k-point  5 :   0.3636 0.0000 0.0000  plane waves:      98
 k-point  6 :   0.4545 0.0000 0.0000  plane waves:      90
 k-point  7 :   0.0909 0.0909 0.0000  plane waves:     105
 k-point  8 :   0.1818 0.0909 0.0000  plane waves:      94
 k-point  9 :   0.2727 0.0909 0.0000  plane waves:      96
 k-point 10 :   0.3636 0.0909 0.0000  plane waves:      94
 k-point 11 :   0.4545 0.0909 0.0000  plane waves:      96
 k-point 12 :  -0.4545 0.0909 0.0000  plane waves:      95
 k-point 13 :  -0.3636 0.0909 0.0000  plane waves:      98
 k-point 14 :  -0.2727 0.0909 0.0000  plane waves:      94
 k-point 15 :  -0.1818 0.0909 0.0000  plane waves:      93
 k-point 16 :  -0.0909 0.0909 0.0000  plane waves:      95
 k-point 17 :   0.1818 0.1818 0.0000  plane waves:      97
 k-point 18 :   0.2727 0.1818 0.0000  plane waves:      93
 k-point 19 :   0.3636 0.1818 0.0000  plane waves:      93
 k-point 20 :   0.4545 0.1818 0.0000  plane waves:      94
 k-point 21 :  -0.4545 0.1818 0.0000  plane waves:      93
 k-point 22 :  -0.3636 0.1818 0.0000  plane waves:      95
 k-point 23 :  -0.2727 0.1818 0.0000  plane waves:      96
 k-point 24 :  -0.1818 0.1818 0.0000  plane waves:      95
 k-point 25 :   0.2727 0.2727 0.0000  plane waves:      88
 k-point 26 :   0.3636 0.2727 0.0000  plane waves:      93
 k-point 27 :   0.4545 0.2727 0.0000  plane waves:      94
 k-point 28 :  -0.4545 0.2727 0.0000  plane waves:      97
 k-point 29 :  -0.3636 0.2727 0.0000  plane waves:      97
 k-point 30 :  -0.2727 0.2727 0.0000  plane waves:      93
 k-point 31 :   0.3636 0.3636 0.0000  plane waves:      88
 k-point 32 :   0.4545 0.3636 0.0000  plane waves:      94
 k-point 33 :  -0.4545 0.3636 0.0000  plane waves:      98
 k-point 34 :  -0.3636 0.3636 0.0000  plane waves:     101
 k-point 35 :   0.4545 0.4545 0.0000  plane waves:      92
 k-point 36 :  -0.4545 0.4545 0.0000  plane waves:      96
 k-point 37 :   0.2727 0.1818 0.0909  plane waves:      92
 k-point 38 :   0.3636 0.1818 0.0909  plane waves:      94
 k-point 39 :   0.4545 0.1818 0.0909  plane waves:      94
 k-point 40 :  -0.4545 0.1818 0.0909  plane waves:      93
 k-point 41 :   0.3636 0.2727 0.0909  plane waves:      92
 k-point 42 :   0.4545 0.2727 0.0909  plane waves:      95
 k-point 43 :  -0.4545 0.2727 0.0909  plane waves:      96
 k-point 44 :  -0.3636 0.2727 0.0909  plane waves:      95
 k-point 45 :  -0.2727 0.2727 0.0909  plane waves:      93
 k-point 46 :  -0.1818 0.2727 0.0909  plane waves:      92
 k-point 47 :   0.4545 0.3636 0.0909  plane waves:      98
 k-point 48 :  -0.4545 0.3636 0.0909  plane waves:      97
 k-point 49 :  -0.3636 0.3636 0.0909  plane waves:      98
 k-point 50 :  -0.2727 0.3636 0.0909  plane waves:      97
 k-point 51 :  -0.4545 0.4545 0.0909  plane waves:      98
 k-point 52 :  -0.3636 0.4545 0.0909  plane waves:      99
 k-point 53 :  -0.4545 0.3636 0.1818  plane waves:      93
 k-point 54 :  -0.3636 0.3636 0.1818  plane waves:      95
 k-point 55 :  -0.3636 0.4545 0.1818  plane waves:      99
 k-point 56 :  -0.2727 0.4545 0.1818  plane waves:     100

 maximum and minimum number of plane-waves per node :       113       88

 maximum number of plane-waves:       113
 maximum index in each direction:
   IXMAX=    3   IYMAX=    3   IZMAX=    3
   IXMIN=   -3   IYMIN=   -3   IZMIN=   -3

 WARNING: aliasing errors must be expected set NGX to  14 to avoid them
 WARNING: aliasing errors must be expected set NGY to  14 to avoid them
 WARNING: aliasing errors must be expected set NGZ to  14 to avoid them
 aliasing errors are usually negligible using standard VASP settings
 and one can safely disregard these warnings

 serial   3D FFT for wavefunctions
 parallel 3D FFT for charge:
    minimum data exchange during FFTs selected (reduces bandwidth)

 Broyden mixing: mesh for mixing (old mesh)
   NGX =  7   NGY =  7   NGZ =  7
  (NGX  = 20   NGY  = 20   NGZ  = 20)
  gives a total of    343 points

 initial charge density was supplied:
 charge density of overlapping atoms calculated
 number of electron       4.0000000 magnetization
 keeping initial charge density in first step

 Maximum index for augmentation-charges         2899 (set IRDMAX)

 First call to EWALD:  gamma=   0.790
 Maximum number of real-space cells 3x 3x 3
 Maximum number of reciprocal cells 3x 3x 3

 FEWALD executed in parallel

----------------------------------------- Iteration    1(   1)  ---------------------------------------

 eigenvalue-minimisations  :   756
 total energy-change (2. order) :-0.4036515E+01  (-0.1291049E+03)
 number of electron       4.0000000 magnetization
 augmentation part        4.0000000 magnetization

 Free energy of the ion-electron system (eV)
  alpha Z        PSCENC =         2.10039359
  Ewald energy   TEWEN  =      -148.33252136
  -Hartree energ DENC   =        -0.25488471
  -exchange      EXHF   =         0.00000000
  -V(xc)+E(xc)   XCENC  =        -8.21059764
  PAW double counting   =        33.55897582      -16.14130609
  entropy T*S    EENTRO =        -0.00163734
  eigenvalues    EBANDS =        29.81744255
  atomic energy  EATOM  =       103.42762056
  free energy    TOTEN  =        -4.03651461 eV

  energy without entropy =       -4.03487727  energy(sigma->0) =       -4.03569594

[...]

 eigenvalue-minimisations  :   696
 total energy-change (2. order) :-0.6490666E-09  (-0.1043800E-08)
 number of electron       4.0000005 magnetization
 augmentation part       -0.2473461 magnetization

 Broyden mixing:
  rms(total) = 0.98455E-01    rms(broyden)= 0.98448E-01
  rms(prec ) = 0.38507E+00
  weight for this iteration     100.00

[...]

 eigenvalue-minimisations  :   732
 total energy-change (2. order) : 0.2358869E-01  (-0.4138375E-03)
 number of electron       4.0000005 magnetization
 augmentation part       -0.2496233 magnetization

[...]

 eigenvalues of (default mixing * dielectric matrix)
  average eigenvalue GAMMA=   2.4961
  2.4961

[...]

 Broyden mixing:
  rms(total) = 0.25016E-02    rms(broyden)= 0.25006E-02
  rms(prec ) = 0.70437E-02
  weight for this iteration     100.00

 eigenvalues of (default mixing * dielectric matrix)
  average eigenvalue GAMMA=   2.4668
  2.4668  2.4668

[...]

----------------------------------------- Iteration    1(   8)  ---------------------------------------

 eigenvalue-minimisations  :   624
 total energy-change (2. order) : 0.1905280E-04  (-0.1951477E-05)
 number of electron       4.0000005 magnetization
 augmentation part       -0.2530370 magnetization

 Free energy of the ion-electron system (eV)
  alpha Z        PSCENC =         2.10039359
  Ewald energy   TEWEN  =      -148.33252136
  -Hartree energ DENC   =        -0.26512241
  -exchange      EXHF   =         0.00000000
  -V(xc)+E(xc)   XCENC  =        -8.06332697
  PAW double counting   =        37.03105661      -19.69284899
  entropy T*S    EENTRO =        -0.00254680
  eigenvalues    EBANDS =        28.51736079
  atomic energy  EATOM  =       103.42762056
  free energy    TOTEN  =        -5.27993497 eV

  energy without entropy =       -5.27738817  energy(sigma->0) =       -5.27866157

 average (electrostatic) potential at core
  the test charge radii are     0.9892
  (the norm of the test charge is              1.0000)
       1 -77.7719

 E-fermi :  13.7852     XC(G=0): -12.2950     alpha+bet :-21.4430

 k-point     1 :       0.0000    0.0000    0.0000
  band No.  band energies     occupation
      1      -3.1021      2.00000
      2      26.8114      0.00000
      3      26.8116      0.00000
      4      26.8116      0.00000
      5      28.0707      0.00000
      6      28.0708      0.00000

[...]

 k-point    56 :      -0.2727    0.4545    0.1818
  band No.  band energies     occupation
      1       9.1788      2.00000
      2       9.4550      2.00000
      3      11.3516      2.00000
      4      13.6132      1.98498
      5      28.4973      0.00000
      6      31.8260      0.00000

 soft charge-density along one line, spin component           1
         0         1         2         3         4         5         6         7         8         9
 total charge-density along one line

------------------------ aborting loop because EDIFF is reached ----------------------------------------

  FORCE on cell =-STRESS in cart. coord.  units (eV):
  Direction    XX          YY          ZZ          XY          YZ          ZX
  Alpha Z     2.10039     2.10039     2.10039
  Ewald     -49.44418   -49.44418   -49.44418     0.00000     0.00000    -0.00000
  Hartree     0.08868     0.08868     0.08868     0.00000     0.00000    -0.00000
  E(xc)     -14.03498   -14.03498   -14.03498    -0.00000    -0.00000    -0.00000
  Local      -3.56028    -3.56028    -3.56028     0.00004     0.00004     0.00004
  n-local    41.32189    38.19240    41.81942    -1.76274     1.46005     2.48445
  augment    -6.51071    -6.51071    -6.51071    -0.00004    -0.00004    -0.00004
  Kinetic    24.10352    46.14787    28.90390    12.44933   -10.42269   -19.02816
  Fock        0.00000     0.00000     0.00000     0.00000     0.00000     0.00000
  Total       2.13526     2.13526     2.13526    -0.00000     0.00000    -0.00000
  in kB     303.11895   303.11895   303.11895    -0.00000     0.00000    -0.00000

 VOLUME and BASIS-vectors are now :
  energy-cutoff  :      240.00
  volume of cell :       11.29
      direct lattice vectors                 reciprocal lattice vectors
     1.780352345  1.780352345  0.000000000     0.280843284  0.280843284 -0.280843284
     0.000000000  1.780352345  1.780352345    -0.280843284  0.280843284  0.280843284
     1.780352345  0.000000000  1.780352345     0.280843284 -0.280843284  0.280843284

  length of vectors
     2.517798432  2.517798432  2.517798432     0.486434838  0.486434838  0.486434838

 FORCES acting on ions
    electron-ion (+dipol)            ewald-force                    non-local-force                 convergence-correction
   0.108E-14 0.219E-15 -.112E-14   -.885E-16 -.266E-15 0.295E-15   0.000E+00 0.132E-22 0.000E+00   0.161E-16 0.138E-16 -.546E-17
   0.108E-14 0.219E-15 -.112E-14   -.885E-16 -.266E-15 0.295E-15   0.000E+00 0.132E-22 0.000E+00   0.161E-16 0.138E-16 -.546E-17

 POSITION                                       TOTAL-FORCE (eV/Angst)
      0.00000      0.00000      0.00000         0.000000      0.000000      0.000000
    total drift:                                0.000000     -0.000000     -0.000000

  FREE ENERGIE OF THE ION-ELECTRON SYSTEM (eV)
  free  energy   TOTEN  =        -5.27993497 eV

  energy  without entropy=       -5.27738817  energy(sigma->0) =       -5.27866157

 writing wavefunctions