 vasp.5.3.5 31Mar14 (build Feb  5 2015 19:39:53) complex

 executed on              HPCUofA date 2017.11.13  12:31:51

 INCAR:
 POTCAR:   PAW Si 02Apr1999
 POTCAR:   PAW Si 02Apr1999
   VRHFIN =Si: s2p2

   TITEL  = PAW Si 02Apr1999
   POMASS =   28.085; ZVAL   =    4.000    mass and valenz
   ENMAX  =  245.704; ENMIN  =  184.278 eV
   QCUT   =   -4.250; QGAM   =    8.499    optimization parameters

   Description
     l     E      TYP  RCUT    TYP  RCUT
     0   .000     23  1.900
     0   .000     23  1.900
     1   .000     23  1.900
     1   .000     23  1.900
     2   .000      7  1.900

 PAW Si 02Apr1999                       :

 POSCAR: fcc Si:
  positions in cartesian coordinates
 exchange correlation table for  LEXCH =        2
   RHO(1)=    0.500       N(1)  =     2000
   RHO(2)=  100.500       N(2)  =     4000

 ion  position               nearest neighbor table
   1  0.000  0.000  0.000-

  LATTYP: Found a face centered cubic cell.
 ALAT       =     3.9000000000

  Lattice vectors:

 A1 = (   1.9500000000,   1.9500000000,   0.0000000000)
 A2 = (   0.0000000000,   1.9500000000,   1.9500000000)
 A3 = (   1.9500000000,   0.0000000000,   1.9500000000)

Analysis of symmetry for initial positions (statically):
 Subroutine PRICEL returns:
 Original cell was already a primitive cell.

 Routine SETGRP: Setting up the symmetry group for a
 face centered cubic supercell.

 Subroutine GETGRP returns: Found 48 space group operations
 (whereof 48 operations were pure point group operations)
 out of a pool of 48 trial point group operations.

The static configuration has the point symmetry O_h .

Analysis of symmetry for dynamics (positions and initial velocities):
 Subroutine PRICEL returns:
 Original cell was already a primitive cell.

 Routine SETGRP: Setting up the symmetry group for a
 face centered cubic supercell.

 Subroutine GETGRP returns: Found 48 space group operations
 (whereof 48 operations were pure point group operations)
 out of a pool of 48 trial point group operations.

The dynamic configuration has the point symmetry O_h .

 KPOINTS: k-points

Automatic generation of k-mesh.
Space group operators:
 irot       det(A)        alpha          n_x          n_y          n_z        tau_x        tau_y        tau_z
    1     1.000000     0.000000     1.000000     0.000000     0.000000     0.000000     0.000000     0.000000
    2    -1.000000     0.000000     1.000000     0.000000     0.000000     0.000000     0.000000     0.000000
    3     1.000000   120.000000    -0.577350    -0.577350    -0.577350     0.000000     0.000000     0.000000
    4    -1.000000   120.000000    -0.577350    -0.577350    -0.577350     0.000000     0.000000     0.000000
    5     1.000000   120.000000     0.577350     0.577350     0.577350     0.000000     0.000000     0.000000
    6    -1.000000   120.000000     0.577350     0.577350     0.577350     0.000000     0.000000     0.000000
    7     1.000000    90.000000     0.000000    -1.000000     0.000000     0.000000     0.000000     0.000000
    8    -1.000000    90.000000     0.000000    -1.000000     0.000000     0.000000     0.000000     0.000000
    9     1.000000   180.000000     0.707107     0.707107     0.000000     0.000000     0.000000     0.000000
   10    -1.000000   180.000000     0.707107     0.707107     0.000000     0.000000     0.000000     0.000000
   11     1.000000    90.000000     1.000000     0.000000     0.000000     0.000000     0.000000     0.000000
   12    -1.000000    90.000000     1.000000     0.000000     0.000000     0.000000     0.000000     0.000000
   13     1.000000   180.000000     0.000000     1.000000     0.000000     0.000000     0.000000     0.000000
   14    -1.000000   180.000000     0.000000     1.000000     0.000000     0.000000     0.000000     0.000000
   15     1.000000   120.000000     0.577350     0.577350    -0.577350     0.000000     0.000000     0.000000
   16    -1.000000   120.000000     0.577350     0.577350    -0.577350     0.000000     0.000000     0.000000
   17     1.000000   120.000000     0.577350    -0.577350    -0.577350     0.000000     0.000000     0.000000
   18    -1.000000   120.000000     0.577350    -0.577350    -0.577350     0.000000     0.000000     0.000000
   19     1.000000    90.000000     0.000000     1.000000     0.000000     0.000000     0.000000     0.000000
   20    -1.000000    90.000000     0.000000     1.000000     0.000000     0.000000     0.000000     0.000000
   21     1.000000    90.000000     0.000000     0.000000    -1.000000     0.000000     0.000000     0.000000
   22    -1.000000    90.000000     0.000000     0.000000    -1.000000     0.000000     0.000000     0.000000
   23     1.000000   180.000000     0.000000     0.707107     0.707107     0.000000     0.000000     0.000000
   24    -1.000000   180.000000     0.000000     0.707107     0.707107     0.000000     0.000000     0.000000
   25     1.000000   120.000000    -0.577350     0.577350     0.577350     0.000000     0.000000     0.000000
   26    -1.000000   120.000000    -0.577350     0.577350     0.577350     0.000000     0.000000     0.000000
   27     1.000000   120.000000    -0.577350     0.577350    -0.577350     0.000000     0.000000     0.000000
   28    -1.000000   120.000000    -0.577350     0.577350    -0.577350     0.000000     0.000000     0.000000
   29     1.000000   179.999999     0.000000     0.000000     1.000000     0.000000     0.000000     0.000000
   30    -1.000000   179.999999     0.000000     0.000000     1.000000     0.000000     0.000000     0.000000
   31     1.000000    90.000000    -1.000000     0.000000     0.000000     0.000000     0.000000     0.000000
   32    -1.000000    90.000000    -1.000000     0.000000     0.000000     0.000000     0.000000     0.000000
   33     1.000000   180.000000     0.707107     0.000000     0.707107     0.000000     0.000000     0.000000
   34    -1.000000   180.000000     0.707107     0.000000     0.707107     0.000000     0.000000     0.000000
   35     1.000000    90.000000     0.000000     0.000000     1.000000     0.000000     0.000000     0.000000
   36    -1.000000    90.000000     0.000000     0.000000     1.000000     0.000000     0.000000     0.000000
   37     1.000000   120.000000    -0.577350    -0.577350     0.577350     0.000000     0.000000     0.000000
   38    -1.000000   120.000000    -0.577350    -0.577350     0.577350     0.000000     0.000000     0.000000
   39     1.000000   180.000000     1.000000     0.000000     0.000000     0.000000     0.000000     0.000000
   40    -1.000000   180.000000     1.000000     0.000000     0.000000     0.000000     0.000000     0.000000
   41     1.000000   120.000000     0.577350    -0.577350     0.577350     0.000000     0.000000     0.000000
   42    -1.000000   120.000000     0.577350    -0.577350     0.577350     0.000000     0.000000     0.000000
   43     1.000000   180.000000     0.707107    -0.707107     0.000000     0.000000     0.000000     0.000000
   44    -1.000000   180.000000     0.707107    -0.707107     0.000000     0.000000     0.000000     0.000000
   45     1.000000   180.000000     0.707107     0.000000    -0.707107     0.000000     0.000000     0.000000
   46    -1.000000   180.000000     0.707107     0.000000    -0.707107     0.000000     0.000000     0.000000
   47     1.000000   180.000000     0.000000    -0.707107     0.707107     0.000000     0.000000     0.000000
   48    -1.000000   180.000000     0.000000    -0.707107     0.707107     0.000000     0.000000     0.000000

 Subroutine IBZKPT returns following result:

 Found    286 irreducible k-points:

 Following reciprocal coordinates:
            Coordinates               Weight
  0.000000  0.000000  0.000000      1.000000
  0.047619  0.000000  0.000000      8.000000
  0.095238  0.000000  0.000000      8.000000
  0.142857  0.000000  0.000000      8.000000
  0.190476  0.000000  0.000000      8.000000
  0.238095  0.000000  0.000000      8.000000
  0.285714  0.000000  0.000000      8.000000
  0.333333  0.000000  0.000000      8.000000
  0.380952  0.000000  0.000000      8.000000
  0.428571  0.000000  0.000000      8.000000
  0.476190  0.000000  0.000000      8.000000
  0.047619  0.047619  0.000000      6.000000
  0.095238  0.047619  0.000000     24.000000
  0.142857  0.047619  0.000000     24.000000
  0.190476  0.047619  0.000000     24.000000
  0.238095  0.047619  0.000000     24.000000
  0.285714  0.047619  0.000000     24.000000
  0.333333  0.047619  0.000000     24.000000
  0.380952  0.047619  0.000000     24.000000
  0.428571  0.047619  0.000000     24.000000
  0.476190  0.047619  0.000000     24.000000
 -0.476190  0.047619  0.000000     24.000000
 -0.428571  0.047619  0.000000     24.000000
 -0.380952  0.047619  0.000000     24.000000
 -0.333333  0.047619  0.000000     24.000000
 -0.285714  0.047619  0.000000     24.000000
 -0.238095  0.047619  0.000000     24.000000
 -0.190476  0.047619  0.000000     24.000000
 -0.142857  0.047619  0.000000     24.000000
 -0.095238  0.047619  0.000000     24.000000
 -0.047619  0.047619  0.000000     12.000000
  0.095238  0.095238  0.000000      6.000000
  0.142857  0.095238  0.000000     24.000000
  0.190476  0.095238  0.000000     24.000000
  0.238095  0.095238  0.000000     24.000000
  0.285714  0.095238  0.000000     24.000000
  0.333333  0.095238  0.000000     24.000000
  0.380952  0.095238  0.000000     24.000000
  0.428571  0.095238  0.000000     24.000000
  0.476190  0.095238  0.000000     24.000000
 -0.476190  0.095238  0.000000     24.000000
 -0.428571  0.095238  0.000000     24.000000
 -0.380952  0.095238  0.000000     24.000000
 -0.333333  0.095238  0.000000     24.000000
 -0.285714  0.095238  0.000000     24.000000
 -0.238095  0.095238  0.000000     24.000000
 -0.190476  0.095238  0.000000     24.000000
 -0.142857  0.095238  0.000000     24.000000
 -0.095238  0.095238  0.000000     12.000000
  0.142857  0.142857  0.000000      6.000000
  0.190476  0.142857  0.000000     24.000000
  0.238095  0.142857  0.000000     24.000000
  0.285714  0.142857  0.000000     24.000000
  0.333333  0.142857  0.000000     24.000000
  0.380952  0.142857  0.000000     24.000000
  0.428571  0.142857  0.000000     24.000000
  0.476190  0.142857  0.000000     24.000000
 -0.476190  0.142857  0.000000     24.000000
 -0.428571  0.142857  0.000000     24.000000
 -0.380952  0.142857  0.000000     24.000000
[...]
 -0.380952  0.428571  0.142857     48.000000
 -0.333333  0.428571  0.142857     48.000000
 -0.285714  0.428571  0.142857     24.000000
 -0.380952  0.476190  0.142857     24.000000
 -0.333333  0.476190  0.142857     24.000000
 -0.428571  0.380952  0.190476     24.000000
 -0.380952  0.380952  0.190476     48.000000
 -0.333333  0.380952  0.190476     48.000000
 -0.380952  0.428571  0.190476     24.000000
 -0.333333  0.428571  0.190476     48.000000
 -0.285714  0.428571  0.190476     48.000000
 -0.238095  0.428571  0.190476     24.000000
 -0.333333  0.476190  0.190476     24.000000
 -0.285714  0.476190  0.190476     24.000000
 -0.285714  0.476190  0.238095     24.000000

 Following cartesian coordinates:
            Coordinates               Weight
[...]
 k-point  2 :   0.0476 0.0000 0.0000  plane waves:     128
 k-point  3 :   0.0952 0.0000 0.0000  plane waves:     128
 k-point  4 :   0.1429 0.0000 0.0000  plane waves:     128
 k-point  5 :   0.1905 0.0000 0.0000  plane waves:     129
 k-point  6 :   0.2381 0.0000 0.0000  plane waves:     132
 k-point  7 :   0.2857 0.0000 0.0000  plane waves:     132
 k-point  8 :   0.3333 0.0000 0.0000  plane waves:     126
 k-point  9 :   0.3810 0.0000 0.0000  plane waves:     123
 k-point 10 :   0.4286 0.0000 0.0000  plane waves:     123
 k-point 11 :   0.4762 0.0000 0.0000  plane waves:     120
 k-point 12 :   0.0476 0.0476 0.0000  plane waves:     125
 k-point 13 :   0.0952 0.0476 0.0000  plane waves:     127
 k-point 14 :   0.1429 0.0476 0.0000  plane waves:     125
 k-point 15 :   0.1905 0.0476 0.0000  plane waves:     127
 k-point 16 :   0.2381 0.0476 0.0000  plane waves:     127
 k-point 17 :   0.2857 0.0476 0.0000  plane waves:     131
 k-point 18 :   0.3333 0.0476 0.0000  plane waves:     131
 k-point 19 :   0.3810 0.0476 0.0000  plane waves:     127
 k-point 20 :   0.4286 0.0476 0.0000  plane waves:     126
 k-point 21 :   0.4762 0.0476 0.0000  plane waves:     125
 k-point 22 :  -0.4762 0.0476 0.0000  plane waves:     122
 k-point 23 :  -0.4286 0.0476 0.0000  plane waves:     126
 k-point 24 :  -0.3810 0.0476 0.0000  plane waves:     126
 k-point 25 :  -0.3333 0.0476 0.0000  plane waves:     128
 k-point 26 :  -0.2857 0.0476 0.0000  plane waves:     131
 k-point 27 :  -0.2381 0.0476 0.0000  plane waves:     131
 k-point 28 :  -0.1905 0.0476 0.0000  plane waves:     128
 k-point 29 :  -0.1429 0.0476 0.0000  plane waves:     126
 k-point 30 :  -0.0952 0.0476 0.0000  plane waves:     125
 k-point 31 :  -0.0476 0.0476 0.0000  plane waves:     127
 k-point 32 :   0.0952 0.0952 0.0000  plane waves:     125
 k-point 33 :   0.1429 0.0952 0.0000  plane waves:     125
 k-point 34 :   0.1905 0.0952 0.0000  plane waves:     131
 k-point 35 :   0.2381 0.0952 0.0000  plane waves:     129
 k-point 36 :   0.2857 0.0952 0.0000  plane waves:     132
 k-point 37 :   0.3333 0.0952 0.0000  plane waves:     130
 k-point 38 :   0.3810 0.0952 0.0000  plane waves:     128
 k-point 39 :   0.4286 0.0952 0.0000  plane waves:     125
 k-point 40 :   0.4762 0.0952 0.0000  plane waves:     127
 k-point 41 :  -0.4762 0.0952 0.0000  plane waves:     127
 k-point 42 :  -0.4286 0.0952 0.0000  plane waves:     126
 k-point 43 :  -0.3810 0.0952 0.0000  plane waves:     124
 k-point 44 :  -0.3333 0.0952 0.0000  plane waves:     127
 k-point 45 :  -0.2857 0.0952 0.0000  plane waves:     131
 k-point 46 :  -0.2381 0.0952 0.0000  plane waves:     131
 k-point 47 :  -0.1905 0.0952 0.0000  plane waves:     130
 k-point 48 :  -0.1429 0.0952 0.0000  plane waves:     128
 k-point 49 :  -0.0952 0.0952 0.0000  plane waves:     127
 k-point 50 :   0.1429 0.1429 0.0000  plane waves:     129
 k-point 51 :   0.1905 0.1429 0.0000  plane waves:     129
 k-point 52 :   0.2381 0.1429 0.0000  plane waves:     130
 k-point 53 :   0.2857 0.1429 0.0000  plane waves:     132
 k-point 54 :   0.3333 0.1429 0.0000  plane waves:     130
 k-point 55 :   0.3810 0.1429 0.0000  plane waves:     128
 k-point 56 :   0.4286 0.1429 0.0000  plane waves:     130
 k-point 57 :   0.4762 0.1429 0.0000  plane waves:     125
 k-point 58 :  -0.4762 0.1429 0.0000  plane waves:     123
 k-point 59 :  -0.4286 0.1429 0.0000  plane waves:     127
 k-point 60 :  -0.3810 0.1429 0.0000  plane waves:     127
[...]
 k-point 85 :   0.4762 0.2381 0.0000  plane waves:     122
 k-point 86 :  -0.4762 0.2381 0.0000  plane waves:     123
 k-point 87 :  -0.4286 0.2381 0.0000  plane waves:     125
 k-point 88 :  -0.3810 0.2381 0.0000  plane waves:     125
 k-point 89 :  -0.3333 0.2381 0.0000  plane waves:     126
 k-point 90 :  -0.2857 0.2381 0.0000  plane waves:     128
 k-point 91 :  -0.2381 0.2381 0.0000  plane waves:     129
 k-point 92 :   0.2857 0.2857 0.0000  plane waves:     129
 k-point 93 :   0.3333 0.2857 0.0000  plane waves:     129
 k-point 94 :   0.3810 0.2857 0.0000  plane waves:     128
 k-point 95 :   0.4286 0.2857 0.0000  plane waves:     122
 k-point 96 :   0.4762 0.2857 0.0000  plane waves:     124
 k-point 97 :  -0.4762 0.2857 0.0000  plane waves:     124
 k-point 98 :  -0.4286 0.2857 0.0000  plane waves:     123
 k-point 99 :  -0.3810 0.2857 0.0000  plane waves:     122
 k-point ** :  -0.3333 0.2857 0.0000  plane waves:     122
 k-point ** :  -0.2857 0.2857 0.0000  plane waves:     126
 k-point ** :   0.3333 0.3333 0.0000  plane waves:     129
 k-point ** :   0.3810 0.3333 0.0000  plane waves:     129
 k-point ** :   0.4286 0.3333 0.0000  plane waves:     123
 k-point ** :   0.4762 0.3333 0.0000  plane waves:     122
 k-point ** :  -0.4762 0.3333 0.0000  plane waves:     124
 k-point ** :  -0.4286 0.3333 0.0000  plane waves:     125
 k-point ** :  -0.3810 0.3333 0.0000  plane waves:     122
 k-point ** :  -0.3333 0.3333 0.0000  plane waves:     122
 k-point ** :   0.3810 0.3810 0.0000  plane waves:     129
 k-point ** :   0.4286 0.3810 0.0000  plane waves:     121
 k-point ** :   0.4762 0.3810 0.0000  plane waves:     121
 k-point ** :  -0.4762 0.3810 0.0000  plane waves:     121
 k-point ** :  -0.4286 0.3810 0.0000  plane waves:     123
 k-point ** :  -0.3810 0.3810 0.0000  plane waves:     126
 k-point ** :   0.4286 0.4286 0.0000  plane waves:     121
 k-point ** :   0.4762 0.4286 0.0000  plane waves:     119
 k-point ** :  -0.4762 0.4286 0.0000  plane waves:     118
 k-point ** :  -0.4286 0.4286 0.0000  plane waves:     120
 k-point ** :   0.4762 0.4762 0.0000  plane waves:     116
 k-point ** :  -0.4762 0.4762 0.0000  plane waves:     116
 k-point ** :   0.1429 0.0952 0.0476  plane waves:     127
 k-point ** :   0.1905 0.0952 0.0476  plane waves:     127
 k-point ** :   0.2381 0.0952 0.0476  plane waves:     129
 k-point ** :   0.2857 0.0952 0.0476  plane waves:     131
 k-point ** :   0.3333 0.0952 0.0476  plane waves:     132
 k-point ** :   0.3810 0.0952 0.0476  plane waves:     129
 k-point ** :   0.4286 0.0952 0.0476  plane waves:     126
 k-point ** :   0.4762 0.0952 0.0476  plane waves:     125
 k-point ** :  -0.4762 0.0952 0.0476  plane waves:     125
 k-point ** :   0.1905 0.1429 0.0476  plane waves:     127
 k-point ** :   0.2381 0.1429 0.0476  plane waves:     131
 k-point ** :   0.2857 0.1429 0.0476  plane waves:     131
 k-point ** :   0.3333 0.1429 0.0476  plane waves:     131
 k-point ** :   0.3810 0.1429 0.0476  plane waves:     130
 k-point ** :   0.4286 0.1429 0.0476  plane waves:     128
 k-point ** :   0.4762 0.1429 0.0476  plane waves:     124
 k-point ** :  -0.4762 0.1429 0.0476  plane waves:     123
 k-point ** :  -0.4286 0.1429 0.0476  plane waves:     124
 k-point ** :  -0.3810 0.1429 0.0476  plane waves:     126
 k-point ** :  -0.3333 0.1429 0.0476  plane waves:     126
 k-point ** :  -0.2857 0.1429 0.0476  plane waves:     131
 k-point ** :  -0.2381 0.1429 0.0476  plane waves:     130
 k-point ** :  -0.1905 0.1429 0.0476  plane waves:     132
 k-point ** :  -0.1429 0.1429 0.0476  plane waves:     133
 k-point ** :  -0.0952 0.1429 0.0476  plane waves:     129
 k-point ** :   0.2381 0.1905 0.0476  plane waves:     129
 k-point ** :   0.2857 0.1905 0.0476  plane waves:     131
 k-point ** :   0.3333 0.1905 0.0476  plane waves:     129
 k-point ** :   0.3810 0.1905 0.0476  plane waves:     129
 k-point ** :   0.4286 0.1905 0.0476  plane waves:     129
 k-point ** :   0.4762 0.1905 0.0476  plane waves:     126
 k-point ** :  -0.4762 0.1905 0.0476  plane waves:     123
 k-point ** :  -0.4286 0.1905 0.0476  plane waves:     124
 k-point ** :  -0.3810 0.1905 0.0476  plane waves:     126
 k-point ** :  -0.3333 0.1905 0.0476  plane waves:     126
 k-point ** :  -0.2857 0.1905 0.0476  plane waves:     128
 k-point ** :  -0.2381 0.1905 0.0476  plane waves:     128
 k-point ** :  -0.1905 0.1905 0.0476  plane waves:     130
[...]
 k-point ** :  -0.3810 0.4286 0.1429  plane waves:     123
 k-point ** :  -0.3333 0.4286 0.1429  plane waves:     120
 k-point ** :  -0.2857 0.4286 0.1429  plane waves:     123
 k-point ** :  -0.3810 0.4762 0.1429  plane waves:     122
 k-point ** :  -0.3333 0.4762 0.1429  plane waves:     122
 k-point ** :  -0.4286 0.3810 0.1905  plane waves:     123
 k-point ** :  -0.3810 0.3810 0.1905  plane waves:     120
 k-point ** :  -0.3333 0.3810 0.1905  plane waves:     119
 k-point ** :  -0.3810 0.4286 0.1905  plane waves:     121
 k-point ** :  -0.3333 0.4286 0.1905  plane waves:     118
 k-point ** :  -0.2857 0.4286 0.1905  plane waves:     117
 k-point ** :  -0.2381 0.4286 0.1905  plane waves:     117
 k-point ** :  -0.3333 0.4762 0.1905  plane waves:     120
 k-point ** :  -0.2857 0.4762 0.1905  plane waves:     116
 k-point ** :  -0.2857 0.4762 0.2381  plane waves:     116

 maximum and minimum number of plane-waves per node :       137      116

 maximum number of plane-waves:       137
 maximum index in each direction:
   IXMAX=    3   IYMAX=    3   IZMAX=    3
   IXMIN=   -3   IYMIN=   -3   IZMIN=   -3

 WARNING: aliasing errors must be expected set NGX to  14 to avoid them
 WARNING: aliasing errors must be expected set NGY to  14 to avoid them
 WARNING: aliasing errors must be expected set NGZ to  14 to avoid them
 aliasing errors are usually negligible using standard VASP settings
 and one can safely disregard these warnings

 serial   3D FFT for wavefunctions
 parallel 3D FFT for charge:
    minimum data exchange during FFTs selected (reduces bandwidth)

 Broyden mixing: mesh for mixing (old mesh)
   NGX =  7   NGY =  7   NGZ =  7
  (NGX  = 20   NGY  = 20   NGZ  = 20)
  gives a total of    343 points

 initial charge density was supplied:
 charge density of overlapping atoms calculated
 number of electron       4.0000000 magnetization
 keeping initial charge density in first step

 Maximum index for augmentation-charges         2171 (set IRDMAX)

 First call to EWALD:  gamma=   0.721
 Maximum number of real-space cells 3x 3x 3
 Maximum number of reciprocal cells 3x 3x 3

 FEWALD executed in parallel

----------------------------------------- Iteration    1(   1)  ---------------------------------------

 BZINTS: Fermi energy: 10.893949;  4.000000 electrons
         Band energy:  18.563572;  BLOECHL correction: -0.155535

 eigenvalue-minimisations  :  3882
 total energy-change (2. order) :-0.4003105E+01  (-0.1190661E+03)
 number of electron       4.0000000 magnetization
 augmentation part        4.0000000 magnetization

 Free energy of the ion-electron system (eV)
  alpha Z        PSCENC =         1.59850770
  Ewald energy   TEWEN  =      -135.42777035
  -Hartree energ DENC   =        -0.68642476
  -exchange      EXHF   =         0.00000000
  -V(xc)+E(xc)   XCENC  =        -8.89627962
  PAW double counting   =        33.55897582      -16.14130609
  entropy T*S    EENTRO =         0.00000000
  eigenvalues    EBANDS =        18.56357166
  atomic energy  EATOM  =       103.42762056
  free energy    TOTEN  =        -4.00310507 eV

  energy without entropy =       -4.00310507  energy(sigma->0) =       -4.00310507

[...]

 eigenvalue-minimisations  :  3708
 total energy-change (2. order) :-0.4063025E-08  (-0.4503551E-08)
 number of electron       4.0000011 magnetization
 augmentation part       -0.2566829 magnetization

 Broyden mixing:
  rms(total) = 0.75088E-01    rms(broyden)= 0.75072E-01
  rms(prec ) = 0.29725E+00
  weight for this iteration     100.00

[...]

 eigenvalue-minimisations  :  3756
 total energy-change (2. order) : 0.1483774E-01  (-0.5258209E-03)
 number of electron       4.0000011 magnetization
 augmentation part       -0.2592781 magnetization

[...]

 eigenvalues of (default mixing * dielectric matrix)
  average eigenvalue GAMMA=   2.4151
  2.4151

[...]

 Broyden mixing:
  rms(total) = 0.27602E-02    rms(broyden)= 0.27587E-02
  rms(prec ) = 0.87463E-02
  weight for this iteration     100.00

 eigenvalues of (default mixing * dielectric matrix)
  average eigenvalue GAMMA=   2.4349
  2.3174  2.5524

[...]

----------------------------------------- Iteration    1(   8)  ---------------------------------------

[...]

 eigenvalue-minimisations  :  3504
 total energy-change (2. order) : 0.2504736E-04  (-0.3553983E-05)
 number of electron       4.0000011 magnetization
 augmentation part       -0.2629546 magnetization

 Free energy of the ion-electron system (eV)
  alpha Z        PSCENC =         1.59850770
  Ewald energy   TEWEN  =      -135.42777035
  -Hartree energ DENC   =        -0.52968980
  -exchange      EXHF   =         0.00000000
  -V(xc)+E(xc)   XCENC  =        -8.82598709
  PAW double counting   =        34.69872863      -17.29815041
  entropy T*S    EENTRO =         0.00000000
  eigenvalues    EBANDS =        16.88251356
  atomic energy  EATOM  =       103.42762056
  free energy    TOTEN  =        -5.47422719 eV

  energy without entropy =       -5.47422719  energy(sigma->0) =       -5.47422719

 average (electrostatic) potential at core
  the test charge radii are     0.9892
  (the norm of the test charge is              1.0000)
       1 -81.7610

 E-fermi :   9.8528     XC(G=0): -11.1661     alpha+bet :-16.3192

 k-point     1 :       0.0000    0.0000    0.0000
  band No.  band energies     occupation
      1      -4.3646      2.00000
      2      20.4794      0.00000
      3      20.4796      0.00000
      4      20.4796      0.00000
      5      21.7250      0.00000
      6      21.7251      0.00000

[...]

 k-point   286 :      -0.2857    0.4762    0.2381
  band No.  band energies     occupation
      1       6.0262      2.00000
      2       7.0973      2.00000
      3       7.3919      2.00000
      4       8.6371      2.01534
      5      23.6157      0.00000
      6      24.1155      0.00000

 soft charge-density along one line, spin component           1
         0         1         2         3         4         5         6         7         8         9
 total charge-density along one line

------------------------ aborting loop because EDIFF is reached ----------------------------------------

 total charge

# of ion     s       p       d       tot
  1        0.866   0.710   0.000   1.575

  FORCE on cell =-STRESS in cart. coord.  units (eV):
  Direction    XX          YY          ZZ          XY          YZ          ZX
  Alpha Z     1.59851     1.59851     1.59851
  Ewald     -45.14259   -45.14259   -45.14259    -0.00000     0.00000    -0.00000
  Hartree     0.17675     0.17675     0.17675    -0.00000    -0.00000    -0.00000
  E(xc)     -13.03056   -13.03056   -13.03056    -0.00000    -0.00000    -0.00000
  Local      -5.81159    -5.81160    -5.81159     0.00005     0.00005     0.00005
  n-local    40.58629    38.64887    40.85272    -0.59360     0.58828     0.96531
  augment    -6.80546    -6.80546    -6.80546    -0.00005    -0.00005    -0.00005
  Kinetic    21.01934    39.92425    24.56563     9.96202    -8.55647   -16.29728
  Fock        0.00000     0.00000     0.00000     0.00000     0.00000     0.00000
  Total      -0.48258    -0.48258    -0.48258     0.00000    -0.00000     0.00000
  in kB     -52.13746   -52.13746   -52.13746     0.00000    -0.00000     0.00000

 VOLUME and BASIS-vectors are now :
  energy-cutoff  :      240.00
  volume of cell :       14.83
      direct lattice vectors                 reciprocal lattice vectors
     1.950000000  1.950000000  0.000000000     0.256410256  0.256410256 -0.256410256
     0.000000000  1.950000000  1.950000000    -0.256410256  0.256410256  0.256410256
     1.950000000  0.000000000  1.950000000     0.256410256 -0.256410256  0.256410256

  length of vectors
     2.757716447  2.757716447  2.757716447     0.444115592  0.444115592  0.444115592

 FORCES acting on ions
    electron-ion (+dipol)            ewald-force                    non-local-force                 convergence-correction
   0.603E-15 0.381E-15 0.156E-15   0.262E-15 0.141E-15 0.191E-15   0.000E+00 -.827E-23 0.000E+00   0.761E-16 0.754E-16 -.447E-16
   0.603E-15 0.381E-15 0.156E-15   0.262E-15 0.141E-15 0.191E-15   0.000E+00 -.827E-23 0.000E+00   0.761E-16 0.754E-16 -.447E-16

 POSITION                                       TOTAL-FORCE (eV/Angst)
      0.00000      0.00000      0.00000        -0.000000     -0.000000     -0.000000
    total drift:                                0.000000      0.000000      0.000000

  FREE ENERGIE OF THE ION-ELECTRON SYSTEM (eV)
  free  energy   TOTEN  =        -5.47422719 eV

  energy  without entropy=       -5.47422719  energy(sigma->0) =       -5.47422719

 writing wavefunctions

 total charge

# of ion     s       p       d       tot
  1        0.866   0.710   0.000   1.575

 BZINTS: Fermi energy:  9.852842;  4.000000 electrons
         Band energy:  16.882514;  BLOECHL correction: -0.059235