 vasp.5.3.5 31Mar14 (build Feb  5 2015 19:39:53) complex

 executed on              HPCUofA date 2017.11.14  13:07:12

 INCAR:
 POTCAR:   PAW Si 02Apr1999
 POTCAR:   PAW Si 02Apr1999
   VRHFIN =Si: s2p2

   TITEL  = PAW Si 02Apr1999
   POMASS =   28.085; ZVAL   =    4.000    mass and valenz
   ENMAX  =  245.704; ENMIN  =  184.278 eV
   QCUT   =   -4.250; QGAM   =    8.499    optimization parameters

   Description
     l     E      TYP  RCUT    TYP  RCUT
     0   .000     23  1.900
     0   .000     23  1.900
     1   .000     23  1.900
     1   .000     23  1.900
     2   .000      7  1.900

 PAW Si 02Apr1999                       :

 POSCAR: diamond Si:
  positions in direct lattice
  velocities in cartesian coordinates
 exchange correlation table for  LEXCH =        2
   RHO(1)=    0.500       N(1)  =     2000
   RHO(2)=  100.500       N(2)  =     4000

 ion  position               nearest neighbor table
   1  0.875  0.875  0.875-   2 2.55   2 2.55   2 2.55   2 2.55
   2  0.125  0.125  0.125-   1 2.55   1 2.55   1 2.55   1 2.55

  LATTYP: Found a face centered cubic cell.
 ALAT       =     5.8898234908

  Lattice vectors:

 A1 = (   0.0000000000,   2.9449117454,   2.9449117454)
 A2 = (   2.9449117454,   0.0000000000,   2.9449117454)
 A3 = (   2.9449117454,   2.9449117454,   0.0000000000)

Analysis of symmetry for initial positions (statically):
 Subroutine PRICEL returns:
 Original cell was already a primitive cell.

 Routine SETGRP: Setting up the symmetry group for a
 face centered cubic supercell.

 Subroutine GETGRP returns: Found 48 space group operations
 (whereof 12 operations were pure point group operations)
 out of a pool of 48 trial point group operations.

The static configuration has the point symmetry D_3d.
 The point group associated with its full space group is O_h .

Analysis of symmetry for dynamics (positions and initial velocities):
 Subroutine PRICEL returns:
 Original cell was already a primitive cell.

 Routine SETGRP: Setting up the symmetry group for a
 face centered cubic supercell.

 Subroutine GETGRP returns: Found 48 space group operations
 (whereof 12 operations were pure point group operations)
 out of a pool of 48 trial point group operations.

The dynamic configuration has the point symmetry D_3d.
 The point group associated with its full space group is O_h .

 KPOINTS: k-points

Automatic generation of k-mesh.
Space group operators:
 irot       det(A)        alpha          n_x          n_y          n_z        tau_x        tau_y        tau_z
    1     1.000000     0.000000     1.000000     0.000000     0.000000     0.000000     0.000000     0.000000
    2    -1.000000     0.000000     1.000000     0.000000     0.000000     0.000000     0.000000     0.000000
    3     1.000000   120.000000    -0.577350    -0.577350    -0.577350     0.000000     0.000000     0.000000
    4    -1.000000   120.000000    -0.577350    -0.577350    -0.577350     0.000000     0.000000     0.000000
    5     1.000000   120.000000     0.577350     0.577350     0.577350     0.000000     0.000000     0.000000
    6    -1.000000   120.000000     0.577350     0.577350     0.577350     0.000000     0.000000     0.000000
    7     1.000000   180.000000     0.000000    -0.707107     0.707107     0.000000     0.000000     0.000000
    8    -1.000000   180.000000     0.000000    -0.707107     0.707107     0.000000     0.000000     0.000000
    9     1.000000   180.000000     0.707107    -0.707107     0.000000     0.000000     0.000000     0.000000
   10    -1.000000   180.000000     0.707107    -0.707107     0.000000     0.000000     0.000000     0.000000
   11     1.000000   180.000000     0.707107     0.000000    -0.707107     0.000000     0.000000     0.000000
   12    -1.000000   180.000000     0.707107     0.000000    -0.707107     0.000000     0.000000     0.000000
   13     1.000000    90.000000     0.000000     0.000000    -1.000000     0.500000     0.000000     0.000000
   14    -1.000000    90.000000     0.000000     0.000000    -1.000000     0.500000     0.000000     0.000000
   15     1.000000   180.000000     0.000000     0.707107     0.707107     0.500000     0.000000     0.000000
   16    -1.000000   180.000000     0.000000     0.707107     0.707107     0.500000     0.000000     0.000000
   17     1.000000    90.000000     0.000000     1.000000     0.000000     0.500000     0.000000     0.000000
   18    -1.000000    90.000000     0.000000     1.000000     0.000000     0.500000     0.000000     0.000000
   19     1.000000   180.000000     0.000000     0.000000     1.000000     0.000000     0.000000     0.500000
   20    -1.000000   180.000000     0.000000     0.000000     1.000000     0.000000     0.000000     0.500000
   21     1.000000   120.000000    -0.577350     0.577350     0.577350     0.000000     0.000000     0.500000
   22    -1.000000   120.000000    -0.577350     0.577350     0.577350     0.000000     0.000000     0.500000
   23     1.000000   120.000000    -0.577350     0.577350    -0.577350     0.000000     0.000000     0.500000
   24    -1.000000   120.000000    -0.577350     0.577350    -0.577350     0.000000     0.000000     0.500000
   25     1.000000    90.000000     0.000000     0.000000     1.000000     0.000000     0.500000     0.000000
   26    -1.000000    90.000000     0.000000     0.000000     1.000000     0.000000     0.500000     0.000000
   27     1.000000    90.000000    -1.000000     0.000000     0.000000     0.000000     0.500000     0.000000
   28    -1.000000    90.000000    -1.000000     0.000000     0.000000     0.000000     0.500000     0.000000
   29     1.000000   180.000000     0.707107     0.000000     0.707107     0.000000     0.500000     0.000000
   30    -1.000000   180.000000     0.707107     0.000000     0.707107     0.000000     0.500000     0.000000
   31     1.000000   120.000000     0.577350    -0.577350     0.577350     0.500000     0.000000     0.000000
   32    -1.000000   120.000000     0.577350    -0.577350     0.577350     0.500000     0.000000     0.000000
   33     1.000000   120.000000    -0.577350    -0.577350     0.577350     0.500000     0.000000     0.000000
   34    -1.000000   120.000000    -0.577350    -0.577350     0.577350     0.500000     0.000000     0.000000
   35     1.000000   180.000000     1.000000     0.000000     0.000000     0.500000     0.000000     0.000000
   36    -1.000000   180.000000     1.000000     0.000000     0.000000     0.500000     0.000000     0.000000
   37     1.000000    90.000000     0.000000    -1.000000     0.000000     0.000000     0.000000     0.500000
   38    -1.000000    90.000000     0.000000    -1.000000     0.000000     0.000000     0.000000     0.500000
   39     1.000000   180.000000     0.707107     0.707107     0.000000     0.000000     0.000000     0.500000
   40    -1.000000   180.000000     0.707107     0.707107     0.000000     0.000000     0.000000     0.500000
   41     1.000000    90.000000     1.000000     0.000000     0.000000     0.000000     0.000000     0.500000
   42    -1.000000    90.000000     1.000000     0.000000     0.000000     0.000000     0.000000     0.500000
   43     1.000000   120.000000     0.577350    -0.577350    -0.577350     0.000000     0.500000     0.000000
   44    -1.000000   120.000000     0.577350    -0.577350    -0.577350     0.000000     0.500000     0.000000
   45     1.000000   180.000000     0.000000     1.000000     0.000000     0.000000     0.500000     0.000000
   46    -1.000000   180.000000     0.000000     1.000000     0.000000     0.000000     0.500000     0.000000
   47     1.000000   120.000000     0.577350     0.577350    -0.577350     0.000000     0.500000     0.000000
   48    -1.000000   120.000000     0.577350     0.577350    -0.577350     0.000000     0.500000     0.000000

 Subroutine IBZKPT returns following result:

 Found     56 irreducible k-points:

 Following reciprocal coordinates:
            Coordinates               Weight
  0.000000  0.000000  0.000000      1.000000
  0.090909  0.000000  0.000000      8.000000
  0.181818  0.000000  0.000000      8.000000
  0.272727  0.000000  0.000000      8.000000
  0.363636  0.000000  0.000000      8.000000
  0.454545  0.000000  0.000000      8.000000
  0.090909  0.090909  0.000000      6.000000
  0.181818  0.090909  0.000000     24.000000
  0.272727  0.090909  0.000000     24.000000
  0.363636  0.090909  0.000000     24.000000
  0.454545  0.090909  0.000000     24.000000
 -0.454545  0.090909  0.000000     24.000000
 -0.363636  0.090909  0.000000     24.000000
 -0.272727  0.090909  0.000000     24.000000
 -0.181818  0.090909  0.000000     24.000000
 -0.090909  0.090909  0.000000     12.000000
  0.181818  0.181818  0.000000      6.000000
  0.272727  0.181818  0.000000     24.000000
  0.363636  0.181818  0.000000     24.000000
  0.454545  0.181818  0.000000     24.000000
 -0.454545  0.181818  0.000000     24.000000
 -0.363636  0.181818  0.000000     24.000000
 -0.272727  0.181818  0.000000     24.000000
 -0.181818  0.181818  0.000000     12.000000
  0.272727  0.272727  0.000000      6.000000
  0.363636  0.272727  0.000000     24.000000
  0.454545  0.272727  0.000000     24.000000
 -0.454545  0.272727  0.000000     24.000000
 -0.363636  0.272727  0.000000     24.000000
 -0.272727  0.272727  0.000000     12.000000
  0.363636  0.363636  0.000000      6.000000
  0.454545  0.363636  0.000000     24.000000
 -0.454545  0.363636  0.000000     24.000000
 -0.363636  0.363636  0.000000     12.000000
  0.454545  0.454545  0.000000      6.000000
 -0.454545  0.454545  0.000000     12.000000
  0.272727  0.181818  0.090909     24.000000
  0.363636  0.181818  0.090909     48.000000
  0.454545  0.181818  0.090909     48.000000
 -0.454545  0.181818  0.090909     48.000000
  0.363636  0.272727  0.090909     24.000000
  0.454545  0.272727  0.090909     48.000000
 -0.454545  0.272727  0.090909     48.000000
 -0.363636  0.272727  0.090909     48.000000
 -0.272727  0.272727  0.090909     48.000000
 -0.181818  0.272727  0.090909     24.000000
  0.454545  0.363636  0.090909     24.000000
 -0.454545  0.363636  0.090909     48.000000
 -0.363636  0.363636  0.090909     48.000000
 -0.272727  0.363636  0.090909     24.000000
 -0.454545  0.454545  0.090909     24.000000
 -0.363636  0.454545  0.090909     24.000000
 -0.454545  0.363636  0.181818     24.000000
 -0.363636  0.363636  0.181818     48.000000
 -0.363636  0.454545  0.181818     24.000000
 -0.272727  0.454545  0.181818     24.000000

 Following cartesian coordinates:
            Coordinates               Weight
  0.000000  0.000000  0.000000      1.000000
 -0.092610  0.092610  0.092610      8.000000
 -0.185219  0.185219  0.185219      8.000000
 -0.277829  0.277829  0.277829      8.000000
 -0.370439  0.370439  0.370439      8.000000
 -0.463048  0.463048  0.463048      8.000000
  0.000000  0.000000  0.185219      6.000000
 -0.092610  0.092610  0.277829     24.000000
 -0.185219  0.185219  0.370439     24.000000
 -0.277829  0.277829  0.463048     24.000000
 -0.370439  0.370439  0.555658     24.000000
  0.555658 -0.555658 -0.370439     24.000000
  0.463048 -0.463048 -0.277829     24.000000
  0.370439 -0.370439 -0.185219     24.000000
[...]
  -0.09260966  0.09260966  0.27782898       0.018
  -0.18521932  0.18521932  0.37043864       0.018
  -0.27782898  0.27782898  0.46304830       0.018
  -0.37043864  0.37043864  0.55565795       0.018
   0.55565795 -0.55565795 -0.37043864       0.018
   0.46304830 -0.46304830 -0.27782898       0.018
   0.37043864 -0.37043864 -0.18521932       0.018
   0.27782898 -0.27782898 -0.09260966       0.018
   0.18521932 -0.18521932  0.00000000       0.009
   0.00000000  0.00000000  0.37043864       0.005
  -0.09260966  0.09260966  0.46304830       0.018
  -0.18521932  0.18521932  0.55565795       0.018
  -0.27782898  0.27782898  0.64826761       0.018
   0.64826761 -0.64826761 -0.27782898       0.018
   0.55565795 -0.55565795 -0.18521932       0.018
   0.46304830 -0.46304830 -0.09260966       0.018
   0.37043864 -0.37043864  0.00000000       0.009
   0.00000000  0.00000000  0.55565795       0.005
  -0.09260966  0.09260966  0.64826761       0.018
  -0.18521932  0.18521932  0.74087727       0.018
   0.74087727 -0.74087727 -0.18521932       0.018
   0.64826761 -0.64826761 -0.09260966       0.018
   0.55565795 -0.55565795  0.00000000       0.009
   0.00000000  0.00000000  0.74087727       0.005
  -0.09260966  0.09260966  0.83348693       0.018
   0.83348693 -0.83348693 -0.09260966       0.018
   0.74087727 -0.74087727  0.00000000       0.009
   0.00000000  0.00000000  0.92609659       0.005
   0.92609659 -0.92609659 -0.00000000       0.009
  -0.00000000  0.18521932  0.37043864       0.018
  -0.09260966  0.27782898  0.46304830       0.036
  -0.18521932  0.37043864  0.55565795       0.036
   0.74087727 -0.55565795 -0.37043864       0.036
   0.00000000  0.18521932  0.55565795       0.018
  -0.09260966  0.27782898  0.64826761       0.036
   0.83348693 -0.64826761 -0.27782898       0.036
   0.74087727 -0.55565795 -0.18521932       0.036
   0.64826761 -0.46304830 -0.09260966       0.036
   0.55565795 -0.37043864 -0.00000000       0.018
  -0.00000000  0.18521932  0.74087727       0.018
   0.92609659 -0.74087727 -0.18521932       0.036
   0.83348693 -0.64826761 -0.09260966       0.036
   0.74087727 -0.55565795  0.00000000       0.018
   1.01870625 -0.83348693 -0.09260966       0.018
   0.92609659 -0.74087727  0.00000000       0.018
   1.01870625 -0.64826761 -0.27782898       0.018
   0.92609659 -0.55565795 -0.18521932       0.036
   1.01870625 -0.64826761 -0.09260966       0.018
   0.92609659 -0.55565795 -0.00000000       0.018

 k-points in reciprocal lattice and weights: k-points
   0.00000000  0.00000000  0.00000000       0.001
   0.09090909  0.00000000  0.00000000       0.006
   0.18181818  0.00000000  0.00000000       0.006
   0.27272727  0.00000000  0.00000000       0.006
   0.36363636  0.00000000  0.00000000       0.006
   0.45454545  0.00000000  0.00000000       0.006
   0.09090909  0.09090909  0.00000000       0.005
   0.18181818  0.09090909  0.00000000       0.018
   0.27272727  0.09090909  0.00000000       0.018
   0.36363636  0.09090909  0.00000000       0.018
   0.45454545  0.09090909  0.00000000       0.018
  -0.45454545  0.09090909  0.00000000       0.018
  -0.36363636  0.09090909  0.00000000       0.018
  -0.27272727  0.09090909  0.00000000       0.018
  -0.18181818  0.09090909  0.00000000       0.018
  -0.09090909  0.09090909  0.00000000       0.009
   0.18181818  0.18181818  0.00000000       0.005
   0.27272727  0.18181818  0.00000000       0.018
   0.36363636  0.18181818  0.00000000       0.018
   0.45454545  0.18181818  0.00000000       0.018
  -0.45454545  0.18181818  0.00000000       0.018
  -0.36363636  0.18181818  0.00000000       0.018
  -0.27272727  0.18181818  0.00000000       0.018
  -0.18181818  0.18181818  0.00000000       0.009
   0.27272727  0.27272727  0.00000000       0.005
   0.36363636  0.27272727  0.00000000       0.018
   0.45454545  0.27272727  0.00000000       0.018
  -0.45454545  0.27272727  0.00000000       0.018
  -0.36363636  0.27272727  0.00000000       0.018
  -0.27272727  0.27272727  0.00000000       0.009
   0.36363636  0.36363636  0.00000000       0.005
   0.45454545  0.36363636  0.00000000       0.018
  -0.45454545  0.36363636  0.00000000       0.018
  -0.36363636  0.36363636  0.00000000       0.009
   0.45454545  0.45454545  0.00000000       0.005
  -0.45454545  0.45454545  0.00000000       0.009
   0.27272727  0.18181818  0.09090909       0.018
   0.36363636  0.18181818  0.09090909       0.036
   0.45454545  0.18181818  0.09090909       0.036
  -0.45454545  0.18181818  0.09090909       0.036
   0.36363636  0.27272727  0.09090909       0.018
   0.45454545  0.27272727  0.09090909       0.036
  -0.45454545  0.27272727  0.09090909       0.036
  -0.36363636  0.27272727  0.09090909       0.036
  -0.27272727  0.27272727  0.09090909       0.036
  -0.18181818  0.27272727  0.09090909       0.018
   0.45454545  0.36363636  0.09090909       0.018
  -0.45454545  0.36363636  0.09090909       0.036
  -0.36363636  0.36363636  0.09090909       0.036
  -0.27272727  0.36363636  0.09090909       0.018
  -0.45454545  0.45454545  0.09090909       0.018
  -0.36363636  0.45454545  0.09090909       0.018
  -0.45454545  0.36363636  0.18181818       0.018
  -0.36363636  0.36363636  0.18181818       0.036
  -0.36363636  0.45454545  0.18181818       0.018
  -0.27272727  0.45454545  0.18181818       0.018

 position of ions in fractional coordinates (direct lattice)
   0.87500000  0.87500000  0.87500000
   0.12500000  0.12500000  0.12500000

 position of ions in cartesian coordinates  (Angst):
   5.15359555  5.15359555  5.15359555
   0.73622794  0.73622794  0.73622794

 k-point  1 :   0.0000 0.0000 0.0000  plane waves:     411
 k-point  2 :   0.0909 0.0000 0.0000  plane waves:     429
 k-point  3 :   0.1818 0.0000 0.0000  plane waves:     432
 k-point  4 :   0.2727 0.0000 0.0000  plane waves:     429
 k-point  5 :   0.3636 0.0000 0.0000  plane waves:     425
 k-point  6 :   0.4545 0.0000 0.0000  plane waves:     428
 k-point  7 :   0.0909 0.0909 0.0000  plane waves:     435
 k-point  8 :   0.1818 0.0909 0.0000  plane waves:     431
 k-point  9 :   0.2727 0.0909 0.0000  plane waves:     433
 k-point 10 :   0.3636 0.0909 0.0000  plane waves:     429
 k-point 11 :   0.4545 0.0909 0.0000  plane waves:     429
 k-point 12 :  -0.4545 0.0909 0.0000  plane waves:     435
 k-point 13 :  -0.3636 0.0909 0.0000  plane waves:     433
 k-point 14 :  -0.2727 0.0909 0.0000  plane waves:     432
 k-point 15 :  -0.1818 0.0909 0.0000  plane waves:     435
 k-point 16 :  -0.0909 0.0909 0.0000  plane waves:     433
 k-point 17 :   0.1818 0.1818 0.0000  plane waves:     435
 k-point 18 :   0.2727 0.1818 0.0000  plane waves:     436
 k-point 19 :   0.3636 0.1818 0.0000  plane waves:     434
 k-point 20 :   0.4545 0.1818 0.0000  plane waves:     430
 k-point 21 :  -0.4545 0.1818 0.0000  plane waves:     430
 k-point 22 :  -0.3636 0.1818 0.0000  plane waves:     430
 k-point 23 :  -0.2727 0.1818 0.0000  plane waves:     428
 k-point 24 :  -0.1818 0.1818 0.0000  plane waves:     433
 k-point 25 :   0.2727 0.2727 0.0000  plane waves:     431
 k-point 26 :   0.3636 0.2727 0.0000  plane waves:     435
 k-point 27 :   0.4545 0.2727 0.0000  plane waves:     434
 k-point 28 :  -0.4545 0.2727 0.0000  plane waves:     431
 k-point 29 :  -0.3636 0.2727 0.0000  plane waves:     426
 k-point 30 :  -0.2727 0.2727 0.0000  plane waves:     431
 k-point 31 :   0.3636 0.3636 0.0000  plane waves:     444
 k-point 32 :   0.4545 0.3636 0.0000  plane waves:     441
 k-point 33 :  -0.4545 0.3636 0.0000  plane waves:     434
 k-point 34 :  -0.3636 0.3636 0.0000  plane waves:     433
 k-point 35 :   0.4545 0.4545 0.0000  plane waves:     444
 k-point 36 :  -0.4545 0.4545 0.0000  plane waves:     438
 k-point 37 :   0.2727 0.1818 0.0909  plane waves:     435
 k-point 38 :   0.3636 0.1818 0.0909  plane waves:     430
 k-point 39 :   0.4545 0.1818 0.0909  plane waves:     429
 k-point 40 :  -0.4545 0.1818 0.0909  plane waves:     432
 k-point 41 :   0.3636 0.2727 0.0909  plane waves:     432
 k-point 42 :   0.4545 0.2727 0.0909  plane waves:     434
 k-point 43 :  -0.4545 0.2727 0.0909  plane waves:     429
 k-point 44 :  -0.3636 0.2727 0.0909  plane waves:     429
 k-point 45 :  -0.2727 0.2727 0.0909  plane waves:     427
 k-point 46 :  -0.1818 0.2727 0.0909  plane waves:     422
 k-point 47 :   0.4545 0.3636 0.0909  plane waves:     432
 k-point 48 :  -0.4545 0.3636 0.0909  plane waves:     434
 k-point 49 :  -0.3636 0.3636 0.0909  plane waves:     428
 k-point 50 :  -0.2727 0.3636 0.0909  plane waves:     426
 k-point 51 :  -0.4545 0.4545 0.0909  plane waves:     436
 k-point 52 :  -0.3636 0.4545 0.0909  plane waves:     431
 k-point 53 :  -0.4545 0.3636 0.1818  plane waves:     431
 k-point 54 :  -0.3636 0.3636 0.1818  plane waves:     426
 k-point 55 :  -0.3636 0.4545 0.1818  plane waves:     433
 k-point 56 :  -0.2727 0.4545 0.1818  plane waves:     432

 maximum and minimum number of plane-waves per node :       444      411

 maximum number of plane-waves:       444
 maximum index in each direction:
   IXMAX=    5   IYMAX=    5   IZMAX=    5
   IXMIN=   -5   IYMIN=   -5   IZMIN=   -5

 WARNING: aliasing errors must be expected set NGX to  22 to avoid them
 WARNING: aliasing errors must be expected set NGY to  22 to avoid them
 WARNING: aliasing errors must be expected set NGZ to  22 to avoid them
 aliasing errors are usually negligible using standard VASP settings
 and one can safely disregard these warnings

 serial   3D FFT for wavefunctions
 parallel 3D FFT for charge:
    minimum data exchange during FFTs selected (reduces bandwidth)

 Broyden mixing: mesh for mixing (old mesh)
   NGX = 11   NGY = 11   NGZ = 11
  (NGX  = 32   NGY  = 32   NGZ  = 32)
  gives a total of   1331 points

 initial charge density was supplied:
 charge density of overlapping atoms calculated
 number of electron       8.0000000 magnetization
 keeping initial charge density in first step

 Maximum index for augmentation-charges         2587 (set IRDMAX)

 First call to EWALD:  gamma=   0.478
 Maximum number of real-space cells 3x 3x 3
 Maximum number of reciprocal cells 3x 3x 3

 FEWALD executed in parallel

----------------------------------------- Iteration    1(   1)  ---------------------------------------

 eigenvalue-minimisations  :   904
 total energy-change (2. order) :-0.1889192E+01  (-0.2005029E+03)
 number of electron       8.0000000 magnetization
 augmentation part        8.0000000 magnetization

 Free energy of the ion-electron system (eV)
  alpha Z        PSCENC =         1.85635788
  Ewald energy   TEWEN  =      -210.71937763
  -Hartree energ DENC   =       -15.05087800
  -exchange      EXHF   =         0.00000000
  -V(xc)+E(xc)   XCENC  =       -19.38708713
  PAW double counting   =        67.11795164      -32.28261218
  entropy T*S    EENTRO =        -0.00474529
  eigenvalues    EBANDS =        -0.27404199
  atomic energy  EATOM  =       206.85524113
  free energy    TOTEN  =        -1.88919155 eV

  energy without entropy =       -1.88444626  energy(sigma->0) =       -1.88681891

[...]

 Broyden mixing:
  rms(total) = 0.24407E+00    rms(broyden)= 0.24406E+00
  rms(prec ) = 0.66290E+00
  weight for this iteration     100.00

[...]

 eigenvalue-minimisations  :  1064
 total energy-change (2. order) : 0.8729044E-01  (-0.4002561E-02)
 number of electron       7.9999986 magnetization
 augmentation part       -0.4896992 magnetization

[...]

 eigenvalues of (default mixing * dielectric matrix)
  average eigenvalue GAMMA=   2.4728
  2.4728

[...]

 eigenvalue-minimisations  :   936
 total energy-change (2. order) :-0.3064313E-03  (-0.2457885E-03)
 number of electron       7.9999986 magnetization
 augmentation part       -0.4884833 magnetization

 Broyden mixing:
  rms(total) = 0.23547E-02    rms(broyden)= 0.23543E-02
  rms(prec ) = 0.81297E-02
  weight for this iteration     100.00

 eigenvalues of (default mixing * dielectric matrix)
  average eigenvalue GAMMA=   2.0499
  1.1914  2.6927  2.2656

[...]

----------------------------------------- Iteration    1(   9)  ---------------------------------------

 eigenvalue-minimisations  :   792
 total energy-change (2. order) : 0.1247929E-04  (-0.8166404E-05)
 number of electron       7.9999986 magnetization
 augmentation part       -0.4884833 magnetization

 Free energy of the ion-electron system (eV)
  alpha Z        PSCENC =         1.85635788
  Ewald energy   TEWEN  =      -210.71937763
  -Hartree energ DENC   =       -17.83490506
  -exchange      EXHF   =         0.00000000
  -V(xc)+E(xc)   XCENC  =       -18.89463880
  PAW double counting   =        69.78682263      -35.02312448
  entropy T*S    EENTRO =        -0.00000005
  eigenvalues    EBANDS =        -7.28339964
  atomic energy  EATOM  =       206.85524113
  free energy    TOTEN  =       -11.25702401 eV

  energy without entropy =      -11.25702396  energy(sigma->0) =      -11.25702398

 average (electrostatic) potential at core
  the test charge radii are     0.9892
  (the norm of the test charge is              1.0000)
       1 -87.4189       2 -87.4189

 E-fermi :   3.8526     XC(G=0):  -8.7207     alpha+bet : -9.4758

 k-point     1 :       0.0000    0.0000    0.0000
  band No.  band energies     occupation
      1      -6.9200      2.00000
      2       3.5587      1.99997
      3       3.5587      1.99997
      4       3.5587      1.99997
      5       4.2272      0.00000
      6       5.9407      0.00000
      7       5.9407      0.00000
      8       5.9407      0.00000

[...]

 k-point    56 :      -0.2727    0.4545    0.1818
  band No.  band energies     occupation
      1      -3.8327      2.00000
      2      -3.2066      2.00000
      3       0.3672      2.00000
      4       0.9042      2.00000
      5       6.5977      0.00000
      6       7.8468      0.00000
      7       8.0367      0.00000
      8       8.1885      0.00000

 soft charge-density along one line, spin component           1
         0         1         2         3         4         5         6         7         8         9
 total charge-density along one line

------------------------ aborting loop because EDIFF is reached ----------------------------------------

  FORCE on cell =-STRESS in cart. coord.  units (eV):
  Direction    XX          YY          ZZ          XY          YZ          ZX
  Alpha Z     1.85636     1.85636     1.85636
  Ewald     -70.23982   -70.23982   -70.23982     0.00000    -0.00000     0.00000
  Hartree     5.94830     5.94830     5.94830     0.00000     0.00000     0.00000
  E(xc)     -24.64103   -24.64103   -24.64103    -0.00000    -0.00000    -0.00000
  Local     -34.45921   -34.45921   -34.45922     0.00009     0.00010     0.00010
  n-local    78.59566    80.00601    74.17041     1.91792    -1.02208     0.36131
  augment   -12.67467   -12.67467   -12.67467    -0.00007    -0.00007    -0.00007
  Kinetic    54.28537    53.19757    48.83825     3.61589    -0.96899     0.99614
  Fock        0.00000     0.00000     0.00000     0.00000     0.00000     0.00000
  Total      -4.51232    -4.51232    -4.51232     0.00000    -0.00000     0.00000
  in kB    -141.53491  -141.53491  -141.53491     0.00000    -0.00000     0.00000

 VOLUME and BASIS-vectors are now :
  energy-cutoff  :      240.00
  volume of cell :       51.08
      direct lattice vectors                 reciprocal lattice vectors
     0.000000000  2.944911745  2.944911745    -0.169784375  0.169784375  0.169784375
     2.944911745  0.000000000  2.944911745     0.169784375 -0.169784375  0.169784375
     2.944911745  2.944911745  0.000000000     0.169784375  0.169784375 -0.169784375

  length of vectors
     4.164734130  4.164734130  4.164734130     0.294075164  0.294075164  0.294075164

 FORCES acting on ions
    electron-ion (+dipol)            ewald-force                    non-local-force                 convergence-correction
   -.257E-05 -.257E-05 0.926E-05   0.137E-14 -.379E-15 0.301E-15   0.149E-15 0.312E-16 0.937E-16   -.534E-06 -.534E-06 -.534E-06
   0.257E-05 0.257E-05 -.926E-05   -.121E-14 0.355E-15 -.970E-16   -.382E-16 -.382E-16 0.104E-16   0.534E-06 0.534E-06 0.534E-06
   -.113E-12 -.327E-14 0.601E-13   0.163E-15 -.243E-16 0.204E-15   0.111E-15 -.694E-17 0.104E-15   0.171E-14 -.133E-14 -.115E-14

 POSITION                                       TOTAL-FORCE (eV/Angst)
      5.15360      5.15360      5.15360        -0.000000     -0.000000     -0.000000
      0.73623      0.73623      0.73623         0.000000      0.000000      0.000000
    total drift:                               -0.000000     -0.000000      0.000000

  FREE ENERGIE OF THE ION-ELECTRON SYSTEM (eV)
  free  energy   TOTEN  =       -11.25702401 eV

  energy  without entropy=      -11.25702396  energy(sigma->0) =      -11.25702398

 writing wavefunctions