 vasp.5.3.5 31Mar14 (build Feb  5 2015 19:39:53) complex

 executed on              HPCUofA date 2017.11.12  22:49:20

 INCAR:
 POTCAR:   PAW Si 02Apr1999
 POTCAR:   PAW Si 02Apr1999
   VRHFIN =Si: s2p2

   TITEL  = PAW Si 02Apr1999
   POMASS =   28.085; ZVAL   =    4.000    mass and valenz
   ENMAX  =  245.704; ENMIN  =  184.278 eV
   QCUT   =   -4.250; QGAM   =    8.499    optimization parameters

   Description
     l     E      TYP  RCUT    TYP  RCUT
     0   .000     23  1.900
     0   .000     23  1.900
     1   .000     23  1.900
     1   .000     23  1.900
     2   .000      7  1.900

 PAW Si 02Apr1999                       :

 POSCAR: diamond Si:
  positions in cartesian coordinates
 exchange correlation table for  LEXCH =        2
   RHO(1)=    0.500       N(1)  =     2000
   RHO(2)=  100.500       N(2)  =     4000

 ion  position               nearest neighbor table
   1  0.875  0.875  0.875-   2 2.38   2 2.38   2 2.38   2 2.38
   2  0.125  0.125  0.125-   1 2.38   1 2.38   1 2.38   1 2.38

  LATTYP: Found a face centered cubic cell.
 ALAT       =     5.5000000000

  Lattice vectors:

 A1 = (   0.0000000000,   2.7500000000,   2.7500000000)
 A2 = (   2.7500000000,   0.0000000000,   2.7500000000)
 A3 = (   2.7500000000,   2.7500000000,   0.0000000000)

Analysis of symmetry for initial positions (statically):
 Subroutine PRICEL returns:
 Original cell was already a primitive cell.

 Routine SETGRP: Setting up the symmetry group for a
 face centered cubic supercell.

 Subroutine GETGRP returns: Found 48 space group operations
 (whereof 12 operations were pure point group operations)
 out of a pool of 48 trial point group operations.

The static configuration has the point symmetry D_3d.
 The point group associated with its full space group is O_h .

Analysis of symmetry for dynamics (positions and initial velocities):
 Subroutine PRICEL returns:
 Original cell was already a primitive cell.

 Routine SETGRP: Setting up the symmetry group for a
 face centered cubic supercell.

 Subroutine GETGRP returns: Found 48 space group operations
 (whereof 12 operations were pure point group operations)
 out of a pool of 48 trial point group operations.

The dynamic configuration has the point symmetry D_3d.
 The point group associated with its full space group is O_h .

 KPOINTS: k-points

Automatic generation of k-mesh.
Space group operators:
 irot       det(A)        alpha          n_x          n_y          n_z        tau_x        tau_y        tau_z
    1     1.000000     0.000000     1.000000     0.000000     0.000000     0.000000     0.000000     0.000000
    2    -1.000000     0.000000     1.000000     0.000000     0.000000     0.000000     0.000000     0.000000
    3     1.000000   120.000000    -0.577350    -0.577350    -0.577350     0.000000     0.000000     0.000000
    4    -1.000000   120.000000    -0.577350    -0.577350    -0.577350     0.000000     0.000000     0.000000
    5     1.000000   120.000000     0.577350     0.577350     0.577350     0.000000     0.000000     0.000000
    6    -1.000000   120.000000     0.577350     0.577350     0.577350     0.000000     0.000000     0.000000
    7     1.000000   180.000000     0.000000    -0.707107     0.707107     0.000000     0.000000     0.000000
    8    -1.000000   180.000000     0.000000    -0.707107     0.707107     0.000000     0.000000     0.000000
    9     1.000000   180.000000     0.707107    -0.707107     0.000000     0.000000     0.000000     0.000000
   10    -1.000000   180.000000     0.707107    -0.707107     0.000000     0.000000     0.000000     0.000000
   11     1.000000   180.000000     0.707107     0.000000    -0.707107     0.000000     0.000000     0.000000
   12    -1.000000   180.000000     0.707107     0.000000    -0.707107     0.000000     0.000000     0.000000
   13     1.000000    90.000000     0.000000     0.000000    -1.000000     0.500000     0.000000     0.000000
   14    -1.000000    90.000000     0.000000     0.000000    -1.000000     0.500000     0.000000     0.000000
   15     1.000000   180.000000     0.000000     0.707107     0.707107     0.500000     0.000000     0.000000
   16    -1.000000   180.000000     0.000000     0.707107     0.707107     0.500000     0.000000     0.000000
   17     1.000000    90.000000     0.000000     1.000000     0.000000     0.500000     0.000000     0.000000
   18    -1.000000    90.000000     0.000000     1.000000     0.000000     0.500000     0.000000     0.000000
   19     1.000000   180.000000     0.000000     0.000000     1.000000     0.000000     0.000000     0.500000
   20    -1.000000   180.000000     0.000000     0.000000     1.000000     0.000000     0.000000     0.500000
   21     1.000000   120.000000    -0.577350     0.577350     0.577350     0.000000     0.000000     0.500000
   22    -1.000000   120.000000    -0.577350     0.577350     0.577350     0.000000     0.000000     0.500000
   23     1.000000   120.000000    -0.577350     0.577350    -0.577350     0.000000     0.000000     0.500000
   24    -1.000000   120.000000    -0.577350     0.577350    -0.577350     0.000000     0.000000     0.500000
   25     1.000000    90.000000     0.000000     0.000000     1.000000     0.000000     0.500000     0.000000
   26    -1.000000    90.000000     0.000000     0.000000     1.000000     0.000000     0.500000     0.000000
   27     1.000000    90.000000    -1.000000     0.000000     0.000000     0.000000     0.500000     0.000000
   28    -1.000000    90.000000    -1.000000     0.000000     0.000000     0.000000     0.500000     0.000000
   29     1.000000   180.000000     0.707107     0.000000     0.707107     0.000000     0.500000     0.000000
   30    -1.000000   180.000000     0.707107     0.000000     0.707107     0.000000     0.500000     0.000000
   31     1.000000   120.000000     0.577350    -0.577350     0.577350     0.500000     0.000000     0.000000
   32    -1.000000   120.000000     0.577350    -0.577350     0.577350     0.500000     0.000000     0.000000
   33     1.000000   120.000000    -0.577350    -0.577350     0.577350     0.500000     0.000000     0.000000
   34    -1.000000   120.000000    -0.577350    -0.577350     0.577350     0.500000     0.000000     0.000000
   35     1.000000   180.000000     1.000000     0.000000     0.000000     0.500000     0.000000     0.000000
   36    -1.000000   180.000000     1.000000     0.000000     0.000000     0.500000     0.000000     0.000000
   37     1.000000    90.000000     0.000000    -1.000000     0.000000     0.000000     0.000000     0.500000
   38    -1.000000    90.000000     0.000000    -1.000000     0.000000     0.000000     0.000000     0.500000
   39     1.000000   180.000000     0.707107     0.707107     0.000000     0.000000     0.000000     0.500000
   40    -1.000000   180.000000     0.707107     0.707107     0.000000     0.000000     0.000000     0.500000
   41     1.000000    90.000000     1.000000     0.000000     0.000000     0.000000     0.000000     0.500000
   42    -1.000000    90.000000     1.000000     0.000000     0.000000     0.000000     0.000000     0.500000
   43     1.000000   120.000000     0.577350    -0.577350    -0.577350     0.000000     0.500000     0.000000
   44    -1.000000   120.000000     0.577350    -0.577350    -0.577350     0.000000     0.500000     0.000000
   45     1.000000   180.000000     0.000000     1.000000     0.000000     0.000000     0.500000     0.000000
   46    -1.000000   180.000000     0.000000     1.000000     0.000000     0.000000     0.500000     0.000000
   47     1.000000   120.000000     0.577350     0.577350    -0.577350     0.000000     0.500000     0.000000
   48    -1.000000   120.000000     0.577350     0.577350    -0.577350     0.000000     0.500000     0.000000

 Subroutine IBZKPT returns following result:

 Found     56 irreducible k-points:

 Following reciprocal coordinates:
            Coordinates               Weight
  0.000000  0.000000  0.000000      1.000000
  0.090909  0.000000  0.000000      8.000000
  0.181818  0.000000  0.000000      8.000000
  0.272727  0.000000  0.000000      8.000000
  0.363636  0.000000  0.000000      8.000000
  0.454545  0.000000  0.000000      8.000000
  0.090909  0.090909  0.000000      6.000000
  0.181818  0.090909  0.000000     24.000000
  0.272727  0.090909  0.000000     24.000000
  0.363636  0.090909  0.000000     24.000000
  0.454545  0.090909  0.000000     24.000000
 -0.454545  0.090909  0.000000     24.000000
 -0.363636  0.090909  0.000000     24.000000
 -0.272727  0.090909  0.000000     24.000000
 -0.181818  0.090909  0.000000     24.000000
 -0.090909  0.090909  0.000000     12.000000
  0.181818  0.181818  0.000000      6.000000
  0.272727  0.181818  0.000000     24.000000
  0.363636  0.181818  0.000000     24.000000
  0.454545  0.181818  0.000000     24.000000
 -0.454545  0.181818  0.000000     24.000000
 -0.363636  0.181818  0.000000     24.000000
 -0.272727  0.181818  0.000000     24.000000
 -0.181818  0.181818  0.000000     12.000000
  0.272727  0.272727  0.000000      6.000000
  0.363636  0.272727  0.000000     24.000000
  0.454545  0.272727  0.000000     24.000000
 -0.454545  0.272727  0.000000     24.000000
 -0.363636  0.272727  0.000000     24.000000
 -0.272727  0.272727  0.000000     12.000000
  0.363636  0.363636  0.000000      6.000000
  0.454545  0.363636  0.000000     24.000000
 -0.454545  0.363636  0.000000     24.000000
 -0.363636  0.363636  0.000000     12.000000
  0.454545  0.454545  0.000000      6.000000
 -0.454545  0.454545  0.000000     12.000000
  0.272727  0.181818  0.090909     24.000000
  0.363636  0.181818  0.090909     48.000000
  0.454545  0.181818  0.090909     48.000000
 -0.454545  0.181818  0.090909     48.000000
  0.363636  0.272727  0.090909     24.000000
  0.454545  0.272727  0.090909     48.000000
 -0.454545  0.272727  0.090909     48.000000
 -0.363636  0.272727  0.090909     48.000000
 -0.272727  0.272727  0.090909     48.000000
 -0.181818  0.272727  0.090909     24.000000
  0.454545  0.363636  0.090909     24.000000
 -0.454545  0.363636  0.090909     48.000000
 -0.363636  0.363636  0.090909     48.000000
 -0.272727  0.363636  0.090909     24.000000
 -0.454545  0.454545  0.090909     24.000000
 -0.363636  0.454545  0.090909     24.000000
 -0.454545  0.363636  0.181818     24.000000
 -0.363636  0.363636  0.181818     48.000000
 -0.363636  0.454545  0.181818     24.000000
 -0.272727  0.454545  0.181818     24.000000

 Following cartesian coordinates:
            Coordinates               Weight
  0.000000  0.000000  0.000000      1.000000
 -0.090909  0.090909  0.090909      8.000000
 -0.181818  0.181818  0.181818      8.000000
 -0.272727  0.272727  0.272727      8.000000
 -0.363636  0.363636  0.363636      8.000000
 -0.454545  0.454545  0.454545      8.000000
  0.000000  0.000000  0.181818      6.000000
 -0.090909  0.090909  0.272727     24.000000
 -0.181818  0.181818  0.363636     24.000000
 -0.272727  0.272727  0.454545     24.000000
 -0.363636  0.363636  0.545455     24.000000
  0.545455 -0.545455 -0.363636     24.000000
  0.454545 -0.454545 -0.272727     24.000000
  0.363636 -0.363636 -0.181818     24.000000
[...]
  -0.36363636  0.27272727  0.00000000       0.018
  -0.27272727  0.27272727  0.00000000       0.009
   0.36363636  0.36363636  0.00000000       0.005
   0.45454545  0.36363636  0.00000000       0.018
  -0.45454545  0.36363636  0.00000000       0.018
  -0.36363636  0.36363636  0.00000000       0.009
   0.45454545  0.45454545  0.00000000       0.005
  -0.45454545  0.45454545  0.00000000       0.009
   0.27272727  0.18181818  0.09090909       0.018
   0.36363636  0.18181818  0.09090909       0.036
   0.45454545  0.18181818  0.09090909       0.036
  -0.45454545  0.18181818  0.09090909       0.036
   0.36363636  0.27272727  0.09090909       0.018
   0.45454545  0.27272727  0.09090909       0.036
  -0.45454545  0.27272727  0.09090909       0.036
  -0.36363636  0.27272727  0.09090909       0.036
  -0.27272727  0.27272727  0.09090909       0.036
  -0.18181818  0.27272727  0.09090909       0.018
   0.45454545  0.36363636  0.09090909       0.018
  -0.45454545  0.36363636  0.09090909       0.036
  -0.36363636  0.36363636  0.09090909       0.036
  -0.27272727  0.36363636  0.09090909       0.018
  -0.45454545  0.45454545  0.09090909       0.018
  -0.36363636  0.45454545  0.09090909       0.018
  -0.45454545  0.36363636  0.18181818       0.018
  -0.36363636  0.36363636  0.18181818       0.036
  -0.36363636  0.45454545  0.18181818       0.018
  -0.27272727  0.45454545  0.18181818       0.018

 position of ions in fractional coordinates (direct lattice)
   0.87500000  0.87500000  0.87500000
   0.12500000  0.12500000  0.12500000

 position of ions in cartesian coordinates  (Angst):
   4.81250000  4.81250000  4.81250000
   0.68750000  0.68750000  0.68750000

 k-point  1 :   0.0000 0.0000 0.0000  plane waves:     339
 k-point  2 :   0.0909 0.0000 0.0000  plane waves:     335
 k-point  3 :   0.1818 0.0000 0.0000  plane waves:     344
 k-point  4 :   0.2727 0.0000 0.0000  plane waves:     350
 k-point  5 :   0.3636 0.0000 0.0000  plane waves:     353
 k-point  6 :   0.4545 0.0000 0.0000  plane waves:     356
 k-point  7 :   0.0909 0.0909 0.0000  plane waves:     335
 k-point  8 :   0.1818 0.0909 0.0000  plane waves:     345
 k-point  9 :   0.2727 0.0909 0.0000  plane waves:     343
 k-point 10 :   0.3636 0.0909 0.0000  plane waves:     349
 k-point 11 :   0.4545 0.0909 0.0000  plane waves:     347
 k-point 12 :  -0.4545 0.0909 0.0000  plane waves:     353
 k-point 13 :  -0.3636 0.0909 0.0000  plane waves:     352
 k-point 14 :  -0.2727 0.0909 0.0000  plane waves:     348
 k-point 15 :  -0.1818 0.0909 0.0000  plane waves:     351
 k-point 16 :  -0.0909 0.0909 0.0000  plane waves:     343
 k-point 17 :   0.1818 0.1818 0.0000  plane waves:     347
 k-point 18 :   0.2727 0.1818 0.0000  plane waves:     348
 k-point 19 :   0.3636 0.1818 0.0000  plane waves:     349
 k-point 20 :   0.4545 0.1818 0.0000  plane waves:     348
 k-point 21 :  -0.4545 0.1818 0.0000  plane waves:     360
 k-point 22 :  -0.3636 0.1818 0.0000  plane waves:     354
 k-point 23 :  -0.2727 0.1818 0.0000  plane waves:     351
 k-point 24 :  -0.1818 0.1818 0.0000  plane waves:     349
 k-point 25 :   0.2727 0.2727 0.0000  plane waves:     347
 k-point 26 :   0.3636 0.2727 0.0000  plane waves:     341
 k-point 27 :   0.4545 0.2727 0.0000  plane waves:     346
 k-point 28 :  -0.4545 0.2727 0.0000  plane waves:     359
 k-point 29 :  -0.3636 0.2727 0.0000  plane waves:     358
 k-point 30 :  -0.2727 0.2727 0.0000  plane waves:     351
 k-point 31 :   0.3636 0.3636 0.0000  plane waves:     351
 k-point 32 :   0.4545 0.3636 0.0000  plane waves:     348
 k-point 33 :  -0.4545 0.3636 0.0000  plane waves:     358
 k-point 34 :  -0.3636 0.3636 0.0000  plane waves:     351
 k-point 35 :   0.4545 0.4545 0.0000  plane waves:     343
 k-point 36 :  -0.4545 0.4545 0.0000  plane waves:     347
 k-point 37 :   0.2727 0.1818 0.0909  plane waves:     349
 k-point 38 :   0.3636 0.1818 0.0909  plane waves:     343
 k-point 39 :   0.4545 0.1818 0.0909  plane waves:     348
 k-point 40 :  -0.4545 0.1818 0.0909  plane waves:     354
 k-point 41 :   0.3636 0.2727 0.0909  plane waves:     346
 k-point 42 :   0.4545 0.2727 0.0909  plane waves:     345
 k-point 43 :  -0.4545 0.2727 0.0909  plane waves:     355
 k-point 44 :  -0.3636 0.2727 0.0909  plane waves:     359
 k-point 45 :  -0.2727 0.2727 0.0909  plane waves:     355
 k-point 46 :  -0.1818 0.2727 0.0909  plane waves:     350
 k-point 47 :   0.4545 0.3636 0.0909  plane waves:     342
 k-point 48 :  -0.4545 0.3636 0.0909  plane waves:     349
 k-point 49 :  -0.3636 0.3636 0.0909  plane waves:     356
 k-point 50 :  -0.2727 0.3636 0.0909  plane waves:     355
 k-point 51 :  -0.4545 0.4545 0.0909  plane waves:     357
 k-point 52 :  -0.3636 0.4545 0.0909  plane waves:     357
 k-point 53 :  -0.4545 0.3636 0.1818  plane waves:     349
 k-point 54 :  -0.3636 0.3636 0.1818  plane waves:     359
 k-point 55 :  -0.3636 0.4545 0.1818  plane waves:     355
 k-point 56 :  -0.2727 0.4545 0.1818  plane waves:     355

 maximum and minimum number of plane-waves per node :       360      335

 maximum number of plane-waves:       360
 maximum index in each direction:
   IXMAX=    5   IYMAX=    4   IZMAX=    4
   IXMIN=   -5   IYMIN=   -5   IZMIN=   -5

 WARNING: aliasing errors must be expected set NGX to  22 to avoid them
 WARNING: aliasing errors must be expected set NGY to  20 to avoid them
 WARNING: aliasing errors must be expected set NGZ to  20 to avoid them
 aliasing errors are usually negligible using standard VASP settings
 and one can safely disregard these warnings

 serial   3D FFT for wavefunctions
 parallel 3D FFT for charge:
    minimum data exchange during FFTs selected (reduces bandwidth)

 Broyden mixing: mesh for mixing (old mesh)
   NGX =  9   NGY =  9   NGZ =  9
  (NGX  = 32   NGY  = 32   NGZ  = 32)
  gives a total of    729 points

 initial charge density was supplied:
 charge density of overlapping atoms calculated
 number of electron       8.0000000 magnetization
 keeping initial charge density in first step

 Maximum index for augmentation-charges         3151 (set IRDMAX)

 First call to EWALD:  gamma=   0.512
 Maximum number of real-space cells 3x 3x 3
 Maximum number of reciprocal cells 3x 3x 3

 FEWALD executed in parallel

----------------------------------------- Iteration    1(   1)  ---------------------------------------

 eigenvalue-minimisations  :   912
 total energy-change (2. order) :-0.2885695E+01  (-0.2004864E+03)
 number of electron       8.0000000 magnetization
 augmentation part        8.0000000 magnetization

 Free energy of the ion-electron system (eV)
  alpha Z        PSCENC =         2.27971458
  Ewald energy   TEWEN  =      -225.65453461
  -Hartree energ DENC   =       -11.66659557
  -exchange      EXHF   =         0.00000000
  -V(xc)+E(xc)   XCENC  =       -18.74256651
  PAW double counting   =        67.11795164      -32.28261218
  entropy T*S    EENTRO =        -0.00061132
  eigenvalues    EBANDS =         9.20831768
  atomic energy  EATOM  =       206.85524113
  free energy    TOTEN  =        -2.88569514 eV

  energy without entropy =       -2.88508382  energy(sigma->0) =       -2.88538948

[...]

 Broyden mixing:
  rms(total) = 0.29351E+00    rms(broyden)= 0.29346E+00
  rms(prec ) = 0.84591E+00
  weight for this iteration     100.00

[...]

 eigenvalue-minimisations  :  1072
 total energy-change (2. order) : 0.1601976E+00  (-0.1033866E-01)
 number of electron       8.0000001 magnetization
 augmentation part       -0.4885256 magnetization

[...]

 eigenvalues of (default mixing * dielectric matrix)
  average eigenvalue GAMMA=   2.3684
  2.3684

[...]

 average (electrostatic) potential at core
  the test charge radii are     0.9892
  (the norm of the test charge is              1.0000)
       1 -85.3231       2 -85.3231

 E-fermi :   5.6775     XC(G=0):  -9.4649     alpha+bet :-11.6368

 k-point     1 :       0.0000    0.0000    0.0000
  band No.  band energies     occupation
      1      -6.3143      2.00000
      2       5.4018      1.99990
      3       5.4018      1.99990
      4       5.4018      1.99990
      5       7.9108      0.00000
      6       7.9108      0.00000
      7       7.9108      0.00000
      8       8.1678      0.00000

[...]

 soft charge-density along one line, spin component           1
         0         1         2         3         4         5         6         7         8         9
 total charge-density along one line

------------------------ aborting loop because EDIFF is reached ----------------------------------------

  FORCE on cell =-STRESS in cart. coord.  units (eV):
  Direction    XX          YY          ZZ          XY          YZ          ZX
  Alpha Z     2.27971     2.27971     2.27971
  Ewald     -75.21821   -75.21821   -75.21821     0.00000     0.00000    -0.00000
  Hartree     5.09543     5.09543     5.09543     0.00000     0.00000     0.00000
  E(xc)     -25.72603   -25.72603   -25.72603     0.00000     0.00000     0.00000
  Local     -31.16136   -31.16136   -31.16136     0.00007     0.00007     0.00007
  n-local    80.89142    82.32027    76.38829     2.27454    -1.30889     0.53750
  augment   -12.50212   -12.50212   -12.50212    -0.00006    -0.00006    -0.00006
  Kinetic    58.31336    55.75029    54.30362     3.58892    -0.64932     1.00880
  Fock        0.00000     0.00000     0.00000     0.00000     0.00000     0.00000
  Total      -1.24350    -1.24350    -1.24350     0.00000    -0.00000    -0.00000
  in kB     -47.89928   -47.89928   -47.89928     0.00000    -0.00000    -0.00000

 VOLUME and BASIS-vectors are now :
  energy-cutoff  :      240.00
  volume of cell :       41.59
      direct lattice vectors                 reciprocal lattice vectors
     0.000000000  2.750000000  2.750000000    -0.181818182  0.181818182  0.181818182
     2.750000000  0.000000000  2.750000000     0.181818182 -0.181818182  0.181818182
     2.750000000  2.750000000  0.000000000     0.181818182  0.181818182 -0.181818182

[...]

 FORCES acting on ions
    electron-ion (+dipol)            ewald-force                    non-local-force                 convergence-correction
   -.104E-05 -.104E-05 0.269E-06   -.224E-14 0.478E-15 0.477E-15   0.167E-15 -.763E-16 0.486E-16   -.212E-05 -.212E-05 -.212E-05
   0.104E-05 0.104E-05 -.269E-06   0.208E-14 -.115E-14 -.887E-15   -.971E-16 0.000E+00 0.486E-16   0.212E-05 0.212E-05 0.212E-05
   -.125E-12 -.317E-13 0.327E-13   -.158E-15 -.674E-15 -.410E-15   0.694E-16 -.763E-16 0.971E-16   0.362E-15 -.303E-15 -.349E-15

 POSITION                                       TOTAL-FORCE (eV/Angst)
      4.81250      4.81250      4.81250        -0.000000     -0.000000     -0.000000
      0.68750      0.68750      0.68750         0.000000      0.000000      0.000000
    total drift:                               -0.000000     -0.000000      0.000000

  FREE ENERGIE OF THE ION-ELECTRON SYSTEM (eV)
  free  energy   TOTEN  =       -11.86123390 eV

  energy  without entropy=      -11.86123377  energy(sigma->0) =      -11.86123384

[...]

 d Force = 0.0000000E+00[ 0.000E+00, 0.000E+00]  d Energy = 0.1988041E-01-0.199E-01
 d Force = 0.0000000E+00[ 0.000E+00, 0.000E+00]  d Ewald  = 0.6977788E+01-0.698E+01

 Steepest descent step on ions:
 trial-energy change:   -0.019880  1 .order   -0.016047   -0.111896    0.079803
  (g-gl).g = 0.112E+00      g.g   = 0.112E+00  gl.gl    = 0.000E+00
 g(Force)  = 0.309E-43   g(Stress)= 0.112E+00 ortho     = 0.000E+00
 gamma     =   0.00000
 trial     =   1.00000
 opt step  =   0.61220  (harmonic =   0.58371) maximal distance =0.00000000
 next E    =   -11.896365   (d E  =  -0.03513)

 FEWALD executed in parallel

[...]

 eigenvalue-minimisations  :  1088
 total energy-change (2. order) :-0.2394818E-01  (-0.2804220E-01)
 number of electron       7.9999993 magnetization
 augmentation part       -0.4887090 magnetization

[...]

 Broyden mixing:
  rms(total) = 0.26683E-02    rms(broyden)= 0.26679E-02
  rms(prec ) = 0.61433E-02
  weight for this iteration     100.00

 eigenvalues of (default mixing * dielectric matrix)
  average eigenvalue GAMMA=   2.0893
  1.9776  2.2010

[...]

----------------------------------------- Iteration    3(   4)  ---------------------------------------

 eigenvalue-minimisations  :   656
 total energy-change (2. order) : 0.2328830E-04  (-0.5719278E-05)
 number of electron       7.9999993 magnetization
 augmentation part       -0.4851428 magnetization

 Free energy of the ion-electron system (eV)
  alpha Z        PSCENC =         2.41005741
  Ewald energy   TEWEN  =      -229.87568469
  -Hartree energ DENC   =       -14.63440310
  -exchange      EXHF   =         0.00000000
  -V(xc)+E(xc)   XCENC  =       -17.89735907
  PAW double counting   =        76.56367642      -41.98004169
  entropy T*S    EENTRO =        -0.00000158
  eigenvalues    EBANDS =         6.66178602
  atomic energy  EATOM  =       206.85524113
  free energy    TOTEN  =       -11.89672915 eV

  energy without entropy =      -11.89672757  energy(sigma->0) =      -11.89672836

 average (electrostatic) potential at core
  the test charge radii are     0.9892
  (the norm of the test charge is              1.0000)
       1 -84.6995       2 -84.6995

 E-fermi :   6.1896     XC(G=0):  -9.6726     alpha+bet :-12.3022

[...]

 k-point    56 :      -0.2727    0.4545    0.1818
  band No.  band energies     occupation
      1      -2.1292      2.00000
      2      -1.3877      2.00000
      3       1.7186      2.00000
      4       2.4429      2.00000
      5       9.2323      0.00000
      6      10.5136      0.00000
      7      11.3255      0.00000
      8      11.3524      0.00000

 soft charge-density along one line, spin component           1
         0         1         2         3         4         5         6         7         8         9
 total charge-density along one line

------------------------ aborting loop because EDIFF is reached ----------------------------------------

  FORCE on cell =-STRESS in cart. coord.  units (eV):
  Direction    XX          YY          ZZ          XY          YZ          ZX
  Alpha Z     2.41006     2.41006     2.41006
  Ewald     -76.62526   -76.62526   -76.62526     0.00000     0.00000     0.00000
  Hartree     4.87897     4.87897     4.87897     0.00000     0.00000     0.00000
  E(xc)     -26.05506   -26.05506   -26.05506     0.00000     0.00000     0.00000
  Local     -30.35451   -30.35451   -30.35451     0.00007     0.00006     0.00006
  n-local    81.89566    83.33983    77.34209     2.39183    -1.39785     0.58880
  augment   -12.52285   -12.52285   -12.52285    -0.00005    -0.00005    -0.00005
  Kinetic    59.62421    56.59686    56.01048     3.58808    -0.55505     1.01936
  Fock        0.00000     0.00000     0.00000     0.00000     0.00000     0.00000
  Total       0.00106     0.00106     0.00106     0.00000     0.00000     0.00000
  in kB       0.04321     0.04321     0.04321     0.00000     0.00000     0.00000

 VOLUME and BASIS-vectors are now :
  energy-cutoff  :      240.00
  volume of cell :       39.34
      direct lattice vectors                 reciprocal lattice vectors
    -0.000000000  2.699502433  2.699502433    -0.185219318  0.185219318  0.185219318
     2.699502433 -0.000000000  2.699502433     0.185219318 -0.185219318  0.185219318
     2.699502433  2.699502433 -0.000000000     0.185219318  0.185219318 -0.185219318

  length of vectors
     3.817672953  3.817672953  3.817672953     0.320809270  0.320809270  0.320809270

 FORCES acting on ions
    electron-ion (+dipol)            ewald-force                    non-local-force                 convergence-correction
   -.856E-06 -.856E-06 -.110E-05   -.195E-15 -.154E-14 -.224E-14   -.520E-16 -.416E-16 0.694E-17   -.129E-06 -.129E-06 -.129E-06
   0.856E-06 0.856E-06 0.110E-05   0.622E-16 0.159E-14 0.286E-14   0.729E-16 0.132E-15 0.208E-16   0.129E-06 0.129E-06 0.129E-06
   -.127E-12 -.400E-13 0.368E-13   -.133E-15 0.497E-16 0.622E-15   0.208E-16 0.902E-16 0.278E-16   -.115E-15 -.455E-15 -.205E-15

 POSITION                                       TOTAL-FORCE (eV/Angst)
      4.72413      4.72413      4.72413         0.000000      0.000000      0.000000
      0.67488      0.67488      0.67488        -0.000000     -0.000000     -0.000000
    total drift:                               -0.000000     -0.000000      0.000000

  FREE ENERGIE OF THE ION-ELECTRON SYSTEM (eV)
  free  energy   TOTEN  =       -11.89672915 eV

  energy  without entropy=      -11.89672757  energy(sigma->0) =      -11.89672836

 d Force = 0.0000000E+00[ 0.000E+00, 0.000E+00]  d Energy = 0.1561484E-01-0.156E-01
 d Force = 0.0000000E+00[ 0.000E+00, 0.000E+00]  d Ewald  =-0.2756638E+01 0.276E+01

 reached required accuracy - stopping structural energy minimisation
 writing wavefunctions